     Program PWSCF v.7.2 starts on 18Jun2024 at 20: 2:24

     Reading input from espresso.pwi
Warning: card &CELL ignored
Warning: card / ignored
Warning: card &FCP ignored
Warning: card / ignored
Warning: card &RISM ignored
Warning: card / ignored

     Current dimensions of program PWSCF are:
     Max number of different atomic species (ntypx) = 10
     Max number of k-points (npk) =  40000
     Max angular momentum in pseudopotentials (lmaxx) =  4
     file O.pbe-n-kjpaw_psl.0.1.UPF: wavefunction(s)  2P renormalized
     signal trapping enabled: kill the code with -SIGUSR1 to stop cleanly the simulation

     K-points division:     npool     =       2
     R & G space division:  proc/nbgrp/npool/nimage =      24
     Subspace diagonalization in iterative solution of the eigenvalue problem:
     one sub-group per band group will be used

     Using Slab Decomposition

     bravais-lattice index     =            0
     lattice parameter (alat)  =      14.8599  a.u.
     unit-cell volume          =    8305.1283 (a.u.)^3
     number of atoms/cell      =           51
     number of atomic types    =            4
     number of electrons       =       437.00
     number of Kohn-Sham states=          263
     kinetic-energy cutoff     =      60.0000  Ry
     charge density cutoff     =     480.0000  Ry
     scf convergence threshold =      1.0E-08
     mixing beta               =       0.1500
     number of iterations used =            8  local-TF  mixing
     Exchange-correlation= PBE
                           (   1   4   3   4   0   0   0)

     celldm(1)=  14.859904  celldm(2)=   0.000000  celldm(3)=   0.000000
     celldm(4)=   0.000000  celldm(5)=   0.000000  celldm(6)=   0.000000

     crystal axes: (cart. coord. in units of alat)
               a(1) = (   1.000000   0.000000   0.000000 )
               a(2) = (   0.000000   1.000000   0.000000 )
               a(3) = (   0.000000   0.000000   2.531036 )

     reciprocal axes: (cart. coord. in units 2 pi/alat)
               b(1) = (  1.000000  0.000000  0.000000 )
               b(2) = (  0.000000  1.000000  0.000000 )
               b(3) = (  0.000000  0.000000  0.395095 )

     PseudoPot. # 1 for Sr read from file:
     /bsuhome/zayahcortright/q-e/pseudo/Sr_pbe_v1.uspp.F.UPF
     MD5 check sum: 6b418c05fbe9db5448babca5e47b7a5b
     Pseudo is Ultrasoft + core correction, Zval = 10.0
     Generated by new atomic code, or converted to UPF format
     Using radial grid of  883 points,  6 beta functions with:
                l(1) =   0
                l(2) =   0
                l(3) =   1
                l(4) =   1
                l(5) =   2
                l(6) =   2
     Q(r) pseudized with  6 coefficients,  rinner =    1.400   1.400   1.400
                                                       1.400   1.400

     PseudoPot. # 2 for O  read from file:
     /bsuhome/zayahcortright/q-e/pseudo/O.pbe-n-kjpaw_psl.0.1.UPF
     MD5 check sum: 0234752ac141de4415c5fc33072bef88
     Pseudo is Projector augmented-wave + core cor, Zval =  6.0
     Generated using "atomic" code by A. Dal Corso  v.5.0.99 svn rev. 10869
     Shape of augmentation charge: BESSEL
     Using radial grid of 1095 points,  4 beta functions with:
                l(1) =   0
                l(2) =   0
                l(3) =   1
                l(4) =   1
     Q(r) pseudized with 0 coefficients

     PseudoPot. # 3 for Co read from file:
     /bsuhome/zayahcortright/q-e/pseudo/Co_pbe_v1.2.uspp.F.UPF
     MD5 check sum: 5f91765df6ddd3222702df6e7b74a16d
     Pseudo is Ultrasoft + core correction, Zval = 17.0
     Generated by new atomic code, or converted to UPF format
     Using radial grid of  863 points,  6 beta functions with:
                l(1) =   0
                l(2) =   0
                l(3) =   1
                l(4) =   1
                l(5) =   2
                l(6) =   2
     Q(r) pseudized with  8 coefficients,  rinner =    1.200   1.200   1.200
                                                       1.200   1.200

     PseudoPot. # 4 for H  read from file:
     /bsuhome/zayahcortright/q-e/pseudo/H.pbe-rrkjus_psl.1.0.0.UPF
     MD5 check sum: f52b6d4d1c606e5624b1dc7b2218f220
     Pseudo is Ultrasoft, Zval =  1.0
     Generated using "atomic" code by A. Dal Corso  v.5.1
     Using radial grid of  929 points,  2 beta functions with:
                l(1) =   0
                l(2) =   0
     Q(r) pseudized with 0 coefficients

     atomic species   valence    mass     pseudopotential
        Sr            10.00    87.62000     Sr( 1.00)
        O              6.00    15.99900     O ( 1.00)
        Co            17.00    58.93319     Co( 1.00)
        H              1.00     1.00800     H ( 1.00)

     No symmetry found

                                    s                        frac. trans.

      isym =  1     identity

 cryst.   s( 1) = (     1          0          0      )
                  (     0          1          0      )
                  (     0          0          1      )

 cart.    s( 1) = (  1.0000000  0.0000000  0.0000000 )
                  (  0.0000000  1.0000000  0.0000000 )
                  (  0.0000000  0.0000000  1.0000000 )

   Cartesian axes

     site n.     atom                  positions (alat units)
         1           Sr  tau(   1) = (   0.2508693   0.7491307   1.7574407  )
         2           O   tau(   2) = (   0.4985141   0.5014859   1.7715967  )
         3           Sr  tau(   3) = (   0.7482398   0.7454518   1.7648669  )
         4           Sr  tau(   4) = (   0.7441748   0.2558252   1.7667843  )
         5           Sr  tau(   5) = (   0.2508693   0.7491307   1.2696799  )
         6           Sr  tau(   6) = (   0.2508693   0.7491307   0.7632319  )
         7           Co  tau(   7) = (   0.4998914   0.5001086   1.0164559  )
         8           Co  tau(   8) = (   0.4936915   0.5063085   1.5135603  )
         9           O   tau(   9) = (   0.4988895   0.7610401   1.0164559  )
        10           O   tau(  10) = (   0.2389599   0.5011105   1.0164559  )
        11           O   tau(  11) = (   0.0070918   0.7374880   1.0164559  )
        12           O   tau(  12) = (   0.0088340   0.7405089   1.5135603  )
        13           O   tau(  13) = (   0.5066944   0.7415376   1.5135603  )
        14           O   tau(  14) = (   0.2584624   0.4933056   1.5135603  )
        15           O   tau(  15) = (   0.4985141   0.5014859   0.7773880  )
        16           O   tau(  16) = (   0.4985141   0.5014859   1.2555238  )
        17           Sr  tau(  17) = (   0.7482398   0.7454518   0.7706582  )
        18           Sr  tau(  18) = (   0.7482398   0.7454518   1.2622536  )
        19           Sr  tau(  19) = (   0.7441748   0.2558252   0.7725755  )
        20           Sr  tau(  20) = (   0.7441748   0.2558252   1.2603363  )
        21           O   tau(  21) = (   0.7322655   0.0078049   1.5135603  )
        22           O   tau(  22) = (   0.7558175   0.4996027   1.5135603  )
        23           O   tau(  23) = (   0.5003973   0.2441825   1.5135603  )
        24           O   tau(  24) = (   0.7527966   0.4978604   1.0164559  )
        25           O   tau(  25) = (   0.5021396   0.2472034   1.0164559  )
        26           O   tau(  26) = (   0.7517679   0.0000000   1.0164559  )
        27           O   tau(  27) = (   0.0114961   0.4948124   1.7455321  )
        28           O   tau(  28) = (   0.0048226   0.0077944   1.7715967  )
        29           Sr  tau(  29) = (   0.2545482   0.2517602   1.7648669  )
        30           O   tau(  30) = (   0.5048017   0.0015068   1.7786929  )
        31           Co  tau(  31) = (   0.0056869   0.5006215   1.0164559  )
        32           Co  tau(  32) = (   0.0065315   0.4997770   1.5135603  )
        33           Co  tau(  33) = (   0.0061999   0.0064171   1.0164559  )
        34           Co  tau(  34) = (   0.0000000   0.0126169   1.5135603  )
        35           O   tau(  35) = (   0.0114961   0.4948124   1.2815885  )
        36           O   tau(  36) = (   0.0114961   0.4948124   0.7513233  )
        37           O   tau(  37) = (   0.0051979   0.2673486   1.0164559  )
        38           O   tau(  38) = (   0.0130029   0.2478461   1.5135603  )
        39           O   tau(  39) = (   0.0048226   0.0077944   0.7773880  )
        40           O   tau(  40) = (   0.0048226   0.0077944   1.2555238  )
        41           Sr  tau(  41) = (   0.2545482   0.2517602   0.7706582  )
        42           Sr  tau(  42) = (   0.2545482   0.2517602   1.2622536  )
        43           Co  tau(  43) = (   0.4989925   0.0073160   1.5135603  )
        44           Co  tau(  44) = (   0.4998370   0.0064714   1.0164559  )
        45           O   tau(  45) = (   0.5048017   0.0015068   0.7844841  )
        46           O   tau(  46) = (   0.5048017   0.0015068   1.2484277  )
        47           O   tau(  47) = (   0.2621260   0.0059111   1.5135603  )
        48           O   tau(  48) = (   0.2591051   0.0041689   1.0164559  )
        49           O   tau(  49) = (   0.1421646   0.4264937   2.1602013  )
        50           O   tau(  50) = (   0.1421646   0.4264937   2.3186489  )
        51           H   tau(  51) = (   0.1421646   0.4264937   2.4431567  )

   Crystallographic axes

     site n.     atom                  positions (cryst. coord.)
         1           Sr  tau(   1) = (  0.2508693  0.7491307  0.6943562  )
         2           O   tau(   2) = (  0.4985141  0.5014859  0.6999492  )
         3           Sr  tau(   3) = (  0.7482398  0.7454518  0.6972903  )
         4           Sr  tau(   4) = (  0.7441748  0.2558252  0.6980478  )
         5           Sr  tau(   5) = (  0.2508693  0.7491307  0.5016443  )
         6           Sr  tau(   6) = (  0.2508693  0.7491307  0.3015492  )
         7           Co  tau(   7) = (  0.4998914  0.5001086  0.4015968  )
         8           Co  tau(   8) = (  0.4936915  0.5063085  0.5980003  )
         9           O   tau(   9) = (  0.4988895  0.7610401  0.4015968  )
        10           O   tau(  10) = (  0.2389599  0.5011105  0.4015968  )
        11           O   tau(  11) = (  0.0070918  0.7374880  0.4015968  )
        12           O   tau(  12) = (  0.0088340  0.7405089  0.5980003  )
        13           O   tau(  13) = (  0.5066944  0.7415376  0.5980003  )
        14           O   tau(  14) = (  0.2584624  0.4933056  0.5980003  )
        15           O   tau(  15) = (  0.4985141  0.5014859  0.3071422  )
        16           O   tau(  16) = (  0.4985141  0.5014859  0.4960513  )
        17           Sr  tau(  17) = (  0.7482398  0.7454518  0.3044833  )
        18           Sr  tau(  18) = (  0.7482398  0.7454518  0.4987103  )
        19           Sr  tau(  19) = (  0.7441748  0.2558252  0.3052408  )
        20           Sr  tau(  20) = (  0.7441748  0.2558252  0.4979527  )
        21           O   tau(  21) = (  0.7322655  0.0078049  0.5980003  )
        22           O   tau(  22) = (  0.7558175  0.4996027  0.5980003  )
        23           O   tau(  23) = (  0.5003973  0.2441825  0.5980003  )
        24           O   tau(  24) = (  0.7527966  0.4978604  0.4015968  )
        25           O   tau(  25) = (  0.5021396  0.2472034  0.4015968  )
        26           O   tau(  26) = (  0.7517679  0.0000000  0.4015968  )
        27           O   tau(  27) = (  0.0114961  0.4948124  0.6896512  )
        28           O   tau(  28) = (  0.0048226  0.0077944  0.6999492  )
        29           Sr  tau(  29) = (  0.2545482  0.2517602  0.6972903  )
        30           O   tau(  30) = (  0.5048017  0.0015068  0.7027529  )
        31           Co  tau(  31) = (  0.0056869  0.5006215  0.4015968  )
        32           Co  tau(  32) = (  0.0065315  0.4997770  0.5980003  )
        33           Co  tau(  33) = (  0.0061999  0.0064171  0.4015968  )
        34           Co  tau(  34) = (  0.0000000  0.0126169  0.5980003  )
        35           O   tau(  35) = (  0.0114961  0.4948124  0.5063494  )
        36           O   tau(  36) = (  0.0114961  0.4948124  0.2968442  )
        37           O   tau(  37) = (  0.0051979  0.2673486  0.4015968  )
        38           O   tau(  38) = (  0.0130029  0.2478461  0.5980003  )
        39           O   tau(  39) = (  0.0048226  0.0077944  0.3071422  )
        40           O   tau(  40) = (  0.0048226  0.0077944  0.4960513  )
        41           Sr  tau(  41) = (  0.2545482  0.2517602  0.3044833  )
        42           Sr  tau(  42) = (  0.2545482  0.2517602  0.4987103  )
        43           Co  tau(  43) = (  0.4989925  0.0073160  0.5980003  )
        44           Co  tau(  44) = (  0.4998370  0.0064714  0.4015968  )
        45           O   tau(  45) = (  0.5048017  0.0015068  0.3099459  )
        46           O   tau(  46) = (  0.5048017  0.0015068  0.4932477  )
        47           O   tau(  47) = (  0.2621260  0.0059111  0.5980003  )
        48           O   tau(  48) = (  0.2591051  0.0041689  0.4015968  )
        49           O   tau(  49) = (  0.1421646  0.4264937  0.8534850  )
        50           O   tau(  50) = (  0.1421646  0.4264937  0.9160869  )
        51           H   tau(  51) = (  0.1421646  0.4264937  0.9652793  )

     number of k points=    10  Gaussian smearing, width (Ry)=  0.0700
                       cart. coord. in units 2pi/alat
        k(    1) = (   0.0000000   0.0000000   0.0000000), wk =   0.1250000
        k(    2) = (   0.0000000   0.2500000   0.0000000), wk =   0.2500000
        k(    3) = (   0.0000000  -0.5000000   0.0000000), wk =   0.1250000
        k(    4) = (   0.2500000   0.2500000   0.0000000), wk =   0.2500000
        k(    5) = (   0.2500000  -0.5000000   0.0000000), wk =   0.2500000
        k(    6) = (  -0.5000000  -0.5000000   0.0000000), wk =   0.1250000
        k(    7) = (   0.2500000   0.0000000   0.0000000), wk =   0.2500000
        k(    8) = (  -0.5000000   0.0000000   0.0000000), wk =   0.1250000
        k(    9) = (  -0.2500000   0.2500000   0.0000000), wk =   0.2500000
        k(   10) = (  -0.5000000   0.2500000   0.0000000), wk =   0.2500000

                       cryst. coord.
        k(    1) = (   0.0000000   0.0000000   0.0000000), wk =   0.1250000
        k(    2) = (   0.0000000   0.2500000   0.0000000), wk =   0.2500000
        k(    3) = (   0.0000000  -0.5000000   0.0000000), wk =   0.1250000
        k(    4) = (   0.2500000   0.2500000   0.0000000), wk =   0.2500000
        k(    5) = (   0.2500000  -0.5000000   0.0000000), wk =   0.2500000
        k(    6) = (  -0.5000000  -0.5000000   0.0000000), wk =   0.1250000
        k(    7) = (   0.2500000   0.0000000   0.0000000), wk =   0.2500000
        k(    8) = (  -0.5000000   0.0000000   0.0000000), wk =   0.1250000
        k(    9) = (  -0.2500000   0.2500000   0.0000000), wk =   0.2500000
        k(   10) = (  -0.5000000   0.2500000   0.0000000), wk =   0.2500000

     Check: negative core charge=   -0.000004

     Initial potential from superposition of free atoms

     starting charge     428.5961, renormalised to     437.0000

     negative rho (up, down):  7.813E-01 0.000E+00
     Starting wfcs are  381 randomized atomic wfcs
     Checking if some PAW data can be deallocated...

     Self-consistent Calculation

     iteration #  1     ecut=    60.00 Ry     beta= 0.15
     Davidson diagonalization with overlap

     ethr =  1.00E-02,  avg # of iterations =  2.0

     negative rho (up, down):  7.716E-01 0.000E+00

     total energy              =   -4489.31395835 Ry
     estimated scf accuracy    <      49.79674852 Ry

[...]

     total energy              =   -4482.97564068 Ry
     estimated scf accuracy    <       0.00000001 Ry

     iteration # 55     ecut=    60.00 Ry     beta= 0.15
     Davidson diagonalization with overlap

     ethr =  2.51E-12,  avg # of iterations =  4.6

     negative rho (up, down):  7.923E-01 0.000E+00

     End of self-consistent calculation

          k = 0.0000 0.0000 0.0000 ( 65197 PWs)   bands (ev):

   -92.3440 -92.2912 -92.1983 -92.1484 -92.0915 -92.0504 -92.0330 -91.9096
   -55.6971 -55.6775 -55.5561 -55.5452 -55.5373 -55.5319 -55.4954 -55.4678
   -55.4510 -55.4494 -55.4424 -55.3995 -55.3796 -55.3431 -55.3245 -55.2912
   -55.2835 -55.2393 -55.2376 -55.2362 -55.2277 -55.1838 -55.1638 -55.0759
   -30.9315 -30.9124 -30.8280 -30.7713 -30.7187 -30.6848 -30.5735 -30.3674
   -29.4960 -29.4519 -29.4263 -29.3175 -22.2567 -14.7290 -14.6896 -14.6066
   -14.4764 -14.2900 -14.1688 -13.8698 -13.8530 -13.8206 -13.7805 -13.7773
   -13.7365 -13.7233 -13.7129 -13.6950 -13.6775 -13.6455 -13.5792 -13.4306
   -13.2537 -13.2200 -13.1871 -13.1559 -13.1399 -13.0963 -13.0568 -12.9784
   -12.9057 -12.8322 -12.8165 -12.7643 -12.7534 -12.7294 -12.7124 -12.7012
   -12.6672 -12.6495 -12.6310 -12.6160 -12.6045 -12.5787 -12.5666 -12.5537
   -12.5058 -12.4841 -12.4707 -12.3211 -12.3091 -12.3025 -11.9964 -11.8519
   -11.7158 -11.6425 -11.5094 -11.4350 -11.4237 -11.4013 -11.3836 -11.3196
   -11.3024 -11.2678 -11.2393 -11.1271 -11.0469 -11.0434  -5.8903  -3.1616
    -3.1580  -2.5891  -2.3560  -2.1266  -1.9793  -1.9163  -1.7734  -1.4663
    -1.4519  -1.4317  -1.3470  -1.3306  -1.2626  -1.2468  -1.2048  -1.1602
    -0.9798  -0.7557  -0.7256  -0.5774  -0.5635  -0.5191  -0.5008  -0.4571
    -0.4418  -0.3810  -0.3544  -0.2857  -0.2744  -0.1937  -0.0677  -0.0531
    -0.0231   0.0587   0.0730   0.0980   0.1446   0.2232   0.2483   0.3156
     0.3362   0.3914   0.4706   0.5316   0.5502   0.5603   0.8159   0.8314
     1.0012   1.0721   1.1326   1.1729   1.2681   1.2820   1.2972   1.3698
     1.3987   1.4327   1.4916   1.6267   1.6777   1.7003   1.7201   1.7300
     1.7967   1.8762   1.9712   1.9869   2.0370   2.0620   2.0995   2.1219
     2.1305   2.1832   2.2409   2.2439   2.2729   2.3009   2.3743   2.5035
     2.5857   2.6331   2.6434   2.7925   2.8069   2.8589   2.8681   2.9677
     3.0081   3.0270   3.0399   3.0536   3.0603   3.0746   3.1501   3.2584
     3.2939   3.3056   3.3123   3.3790   3.3832   3.4069   3.4159   3.4232
     3.4317   3.4425   3.4551   3.4610   3.4738   3.4828   3.4903   3.5110
     3.5324   3.5373   3.5493   3.5660   3.6900   3.7416   4.4166   4.7510
     4.7931   5.1389   5.3825   5.4664   5.7259   6.2849   6.3248   6.3462
     6.6171   6.6312   6.6690   6.7177   6.9809   7.1388   7.2674   7.3784
     7.5401   7.6475   7.8436   7.8986   7.9145   7.9556   8.0000   8.0733
     8.3015   8.3682   8.3961   8.4126   8.5038   8.5383   8.6721

     occupation numbers
     1.0000   1.0000   1.0000   1.0000   1.0000   1.0000   1.0000   1.0000
     1.0000   1.0000   1.0000   1.0000   1.0000   1.0000   1.0000   1.0000
     1.0000   1.0000   1.0000   1.0000   1.0000   1.0000   1.0000   1.0000
     1.0000   1.0000   1.0000   1.0000   1.0000   1.0000   1.0000   1.0000
     1.0000   1.0000   1.0000   1.0000   1.0000   1.0000   1.0000   1.0000
     1.0000   1.0000   1.0000   1.0000   1.0000   1.0000   1.0000   1.0000
     1.0000   1.0000   1.0000   1.0000   1.0000   1.0000   1.0000   1.0000
     1.0000   1.0000   1.0000   1.0000   1.0000   1.0000   1.0000   1.0000
     1.0000   1.0000   1.0000   1.0000   1.0000   1.0000   1.0000   1.0000
     1.0000   1.0000   1.0000   1.0000   1.0000   1.0000   1.0000   1.0000
     1.0000   1.0000   1.0000   1.0000   1.0000   1.0000   1.0000   1.0000
     1.0000   1.0000   1.0000   1.0000   1.0000   1.0000   1.0000   1.0000
     1.0000   1.0000   1.0000   1.0000   1.0000   1.0000   1.0000   1.0000
     1.0000   1.0000   1.0000   1.0000   1.0000   1.0000   1.0000   1.0000
     1.0000   1.0000   1.0000   1.0000   1.0000   1.0000   1.0000   1.0000
     1.0000   1.0000   1.0000   1.0000   1.0000   1.0000   1.0000   1.0000
     1.0000   1.0000   1.0000   1.0000   1.0000   1.0000   1.0000   1.0000
     1.0000   1.0000   1.0000   1.0000   1.0000   1.0000   1.0000   1.0000
     1.0000   1.0000   1.0000   1.0000   1.0000   1.0000   1.0000   1.0000
     1.0000   1.0000   1.0000   1.0000   1.0000   1.0000   1.0000   1.0000
     1.0000   0.9999   0.9999   0.9999   0.9998   0.9998   0.9998   0.9997
     0.9997   0.9996   0.9994   0.9989   0.9985   0.9984   0.9982   0.9981
     0.9974   0.9963   0.9945   0.9941   0.9927   0.9919   0.9906   0.9897
     0.9894   0.9870   0.9838   0.9837   0.9818   0.9799   0.9739   0.9600
     0.9483   0.9404   0.9385   0.9068   0.9032   0.8892   0.8866   0.8556
     0.8416   0.8347   0.8299   0.8247   0.8221   0.8165   0.7853   0.7354
     0.7179   0.7120   0.7086   0.6737   0.6715   0.6587   0.6538   0.6498
     0.6451   0.6391   0.6321   0.6287   0.6215   0.6165   0.6122   0.6003
     0.5881   0.5852   0.5782   0.5685   0.4954   0.4649   0.1378   0.0563
     0.0495   0.0153   0.0058   0.0040   0.0012   0.0001   0.0000   0.0000
     0.0000   0.0000   0.0000   0.0000   0.0000   0.0000   0.0000   0.0000
     0.0000   0.0000   0.0000   0.0000   0.0000   0.0000   0.0000   0.0000
     0.0000   0.0000   0.0000   0.0000   0.0000   0.0000   0.0000

[...]

          k =-0.5000-0.5000 0.0000 ( 65132 PWs)   bands (ev):

[...]

          k = 0.2500 0.0000 0.0000 ( 65257 PWs)   bands (ev):

[...]

          k =-0.5000 0.2500 0.0000 ( 65138 PWs)   bands (ev):

   -92.3440 -92.2912 -92.1983 -92.1484 -92.0915 -92.0504 -92.0330 -91.9096
   -55.6971 -55.6775 -55.5561 -55.5452 -55.5373 -55.5319 -55.4954 -55.4678
   -55.4510 -55.4494 -55.4424 -55.3995 -55.3796 -55.3431 -55.3245 -55.2912
   -55.2835 -55.2393 -55.2376 -55.2362 -55.2277 -55.1838 -55.1638 -55.0759
   -30.9273 -30.9162 -30.8275 -30.7708 -30.7188 -30.6857 -30.5736 -30.3678
   -29.4934 -29.4536 -29.4262 -29.3187 -22.2567 -14.6304 -14.5854 -14.5083
   -14.4124 -14.3678 -14.2411 -14.1571 -14.0313 -13.7783 -13.7168 -13.6875
   -13.6749 -13.6302 -13.6123 -13.5833 -13.5468 -13.5451 -13.5200 -13.4855
   -13.4701 -13.3744 -13.2883 -13.2386 -13.2359 -13.2236 -13.1571 -13.1219
   -13.0482 -13.0010 -12.8547 -12.8196 -12.7577 -12.7213 -12.6828 -12.6702
   -12.6622 -12.6328 -12.6170 -12.5972 -12.5883 -12.5469 -12.4941 -12.4123
   -12.3912 -12.3139 -12.2758 -12.2679 -12.1933 -12.1018 -11.9803 -11.9774
   -11.8525 -11.8235 -11.4189 -11.4060 -11.3920 -11.3804 -11.3587 -11.3286
   -11.2481 -11.2390 -11.2163 -11.1796 -11.1517 -11.1427  -5.8903  -3.1618
    -3.1583  -2.0868  -2.0446  -1.8955  -1.8540  -1.6940  -1.6161  -1.4744
    -1.3389  -1.2805  -1.2542  -1.2151  -1.1767  -1.0966  -0.9819  -0.9251
    -0.9021  -0.8762  -0.8002  -0.7712  -0.7339  -0.7152  -0.6544  -0.6259
    -0.5865  -0.5515  -0.5228  -0.4653  -0.4394  -0.3980  -0.3628  -0.2582
    -0.2336  -0.1412  -0.0874  -0.0501   0.0092   0.0878   0.1184   0.2248
     0.2529   0.3160   0.3588   0.3988   0.4667   0.4920   0.5231   0.5837
     0.6210   0.9287   0.9846   1.0347   1.0520   1.3572   1.4179   1.4924
     1.5208   1.6989   1.7344   1.7719   1.7865   1.8042   1.8217   1.8915
     1.9345   1.9715   2.0032   2.1080   2.1533   2.1860   2.1955   2.2255
     2.2608   2.2745   2.2846   2.3070   2.3323   2.3733   2.4015   2.4309
     2.4550   2.4825   2.5474   2.6646   2.7665   2.7974   2.8660   2.9081
     2.9648   3.0046   3.0122   3.0314   3.0488   3.0578   3.0853   3.1079
     3.1888   3.2309   3.2468   3.2519   3.2729   3.2952   3.3078   3.3230
     3.3349   3.3557   3.3697   3.3796   3.3871   3.3960   3.4080   3.9312
     3.9661   4.1278   4.1483   4.4135   4.4873   4.5385   4.7339   5.0761
     5.1311   5.2495   5.3411   5.4378   5.7258   5.7708   5.8351   5.8920
     6.0466   6.1583   6.2952   6.5478   6.5755   6.6558   7.1499   7.2268
     7.5518   7.6834   7.9653   8.0544   8.1859   8.1979   8.3140   8.3702
     8.5316   8.6327   8.7248   8.8171   8.8639   8.9212   8.9443

     occupation numbers
     1.0000   1.0000   1.0000   1.0000   1.0000   1.0000   1.0000   1.0000
     1.0000   1.0000   1.0000   1.0000   1.0000   1.0000   1.0000   1.0000
     1.0000   1.0000   1.0000   1.0000   1.0000   1.0000   1.0000   1.0000
     1.0000   1.0000   1.0000   1.0000   1.0000   1.0000   1.0000   1.0000
     1.0000   1.0000   1.0000   1.0000   1.0000   1.0000   1.0000   1.0000
     1.0000   1.0000   1.0000   1.0000   1.0000   1.0000   1.0000   1.0000
     1.0000   1.0000   1.0000   1.0000   1.0000   1.0000   1.0000   1.0000
     1.0000   1.0000   1.0000   1.0000   1.0000   1.0000   1.0000   1.0000
     1.0000   1.0000   1.0000   1.0000   1.0000   1.0000   1.0000   1.0000
     1.0000   1.0000   1.0000   1.0000   1.0000   1.0000   1.0000   1.0000
     1.0000   1.0000   1.0000   1.0000   1.0000   1.0000   1.0000   1.0000
     1.0000   1.0000   1.0000   1.0000   1.0000   1.0000   1.0000   1.0000
     1.0000   1.0000   1.0000   1.0000   1.0000   1.0000   1.0000   1.0000
     1.0000   1.0000   1.0000   1.0000   1.0000   1.0000   1.0000   1.0000
     1.0000   1.0000   1.0000   1.0000   1.0000   1.0000   1.0000   1.0000
     1.0000   1.0000   1.0000   1.0000   1.0000   1.0000   1.0000   1.0000
     1.0000   1.0000   1.0000   1.0000   1.0000   1.0000   1.0000   1.0000
     1.0000   1.0000   1.0000   1.0000   1.0000   1.0000   1.0000   1.0000
     1.0000   1.0000   1.0000   1.0000   1.0000   1.0000   1.0000   1.0000
     1.0000   1.0000   1.0000   1.0000   1.0000   1.0000   1.0000   1.0000
     1.0000   1.0000   1.0000   1.0000   1.0000   0.9997   0.9996   0.9994
     0.9993   0.9984   0.9981   0.9977   0.9976   0.9974   0.9971   0.9961
     0.9953   0.9945   0.9937   0.9903   0.9884   0.9869   0.9864   0.9847
     0.9826   0.9817   0.9810   0.9794   0.9775   0.9740   0.9714   0.9684
     0.9658   0.9626   0.9540   0.9346   0.9131   0.9056   0.8872   0.8748
     0.8566   0.8428   0.8401   0.8331   0.8265   0.8231   0.8123   0.8031
     0.7681   0.7487   0.7410   0.7386   0.7283   0.7173   0.7109   0.7032
     0.6970   0.6861   0.6787   0.6735   0.6694   0.6646   0.6581   0.3558
     0.3367   0.2541   0.2445   0.1388   0.1159   0.1018   0.0592   0.0192
     0.0157   0.0100   0.0069   0.0046   0.0012   0.0010   0.0007   0.0005
     0.0002   0.0001   0.0001   0.0000   0.0000   0.0000   0.0000   0.0000
     0.0000   0.0000   0.0000   0.0000   0.0000   0.0000   0.0000   0.0000
     0.0000   0.0000   0.0000   0.0000   0.0000   0.0000   0.0000

     the Fermi energy is     3.6822 ev

!    total energy              =   -4482.97564068 Ry
     estimated scf accuracy    <          4.7E-09 Ry
     smearing contrib. (-TS)   =      -1.17204802 Ry
     internal energy E=F+TS    =   -4481.80359267 Ry

     The total energy is F=E-TS. E is the sum of the following terms:
     one-electron contribution =  -20252.26010290 Ry
     hartree contribution      =   10265.71454805 Ry
     xc contribution           =    -701.58367314 Ry
     ewald contribution        =    6491.98106872 Ry
     one-center paw contrib.   =    -285.65543339 Ry
      -> PAW hartree energy AE =      25.17135974 Ry
      -> PAW hartree energy PS =     -25.05519971 Ry
      -> PAW xc energy AE      =     -16.51863641 Ry
      -> PAW xc energy PS      =       6.87817534 Ry
      -> total E_H with PAW    =   10265.83070808 Ry
      -> total E_XC with PAW   =    -711.22413422 Ry

     convergence has been achieved in  55 iterations

     Writing all to output data dir /bsuhome/zayahcortright/scratch/pwscf.save/

     General routines

     Parallel routines

     PAW routines

   This run was terminated on:  20:16:52  18Jun2024

   JOB DONE.