     Program PWSCF v.7.2 starts on 20Jun2024 at 20:34: 9

     Reading input from espresso.pwi
Warning: card &CELL ignored
Warning: card / ignored
Warning: card &FCP ignored
Warning: card / ignored
Warning: card &RISM ignored
Warning: card / ignored

     Current dimensions of program PWSCF are:
     Max number of different atomic species (ntypx) = 10
     Max number of k-points (npk) =  40000
     Max angular momentum in pseudopotentials (lmaxx) =  4
     file O.pbe-n-kjpaw_psl.0.1.UPF: wavefunction(s)  2P renormalized
     signal trapping enabled: kill the code with -SIGUSR1 to stop cleanly the simulation

     K-points division:     npool     =       2
     R & G space division:  proc/nbgrp/npool/nimage =      24
     Subspace diagonalization in iterative solution of the eigenvalue problem:
     one sub-group per band group will be used

     Using Slab Decomposition

     bravais-lattice index     =            0
     lattice parameter (alat)  =      14.8599  a.u.
     unit-cell volume          =    8305.1283 (a.u.)^3
     number of atoms/cell      =           51
     number of atomic types    =            4
     number of electrons       =       437.00
     number of Kohn-Sham states=          263
     kinetic-energy cutoff     =      60.0000  Ry
     charge density cutoff     =     480.0000  Ry
     scf convergence threshold =      1.0E-08
     mixing beta               =       0.1500
     number of iterations used =            8  local-TF  mixing
     Exchange-correlation= PBE
                           (   1   4   3   4   0   0   0)

     celldm(1)=  14.859904  celldm(2)=   0.000000  celldm(3)=   0.000000
     celldm(4)=   0.000000  celldm(5)=   0.000000  celldm(6)=   0.000000

     crystal axes: (cart. coord. in units of alat)
               a(1) = (   1.000000   0.000000   0.000000 )
               a(2) = (   0.000000   1.000000   0.000000 )
               a(3) = (   0.000000   0.000000   2.531036 )

     reciprocal axes: (cart. coord. in units 2 pi/alat)
               b(1) = (  1.000000  0.000000  0.000000 )
               b(2) = (  0.000000  1.000000  0.000000 )
               b(3) = (  0.000000  0.000000  0.395095 )

     PseudoPot. # 1 for Sr read from file:
     /bsuhome/zayahcortright/q-e/pseudo/Sr_pbe_v1.uspp.F.UPF
     MD5 check sum: 6b418c05fbe9db5448babca5e47b7a5b
     Pseudo is Ultrasoft + core correction, Zval = 10.0
     Generated by new atomic code, or converted to UPF format
     Using radial grid of  883 points,  6 beta functions with:
                l(1) =   0
                l(2) =   0
                l(3) =   1
                l(4) =   1
                l(5) =   2
                l(6) =   2
     Q(r) pseudized with  6 coefficients,  rinner =    1.400   1.400   1.400
                                                       1.400   1.400

     PseudoPot. # 2 for O  read from file:
     /bsuhome/zayahcortright/q-e/pseudo/O.pbe-n-kjpaw_psl.0.1.UPF
     MD5 check sum: 0234752ac141de4415c5fc33072bef88
     Pseudo is Projector augmented-wave + core cor, Zval =  6.0
     Generated using "atomic" code by A. Dal Corso  v.5.0.99 svn rev. 10869
     Shape of augmentation charge: BESSEL
     Using radial grid of 1095 points,  4 beta functions with:
                l(1) =   0
                l(2) =   0
                l(3) =   1
                l(4) =   1
     Q(r) pseudized with 0 coefficients

     PseudoPot. # 3 for Co read from file:
     /bsuhome/zayahcortright/q-e/pseudo/Co_pbe_v1.2.uspp.F.UPF
     MD5 check sum: 5f91765df6ddd3222702df6e7b74a16d
     Pseudo is Ultrasoft + core correction, Zval = 17.0
     Generated by new atomic code, or converted to UPF format
     Using radial grid of  863 points,  6 beta functions with:
                l(1) =   0
                l(2) =   0
                l(3) =   1
                l(4) =   1
                l(5) =   2
                l(6) =   2
     Q(r) pseudized with  8 coefficients,  rinner =    1.200   1.200   1.200
                                                       1.200   1.200

     PseudoPot. # 4 for H  read from file:
     /bsuhome/zayahcortright/q-e/pseudo/H.pbe-rrkjus_psl.1.0.0.UPF
     MD5 check sum: f52b6d4d1c606e5624b1dc7b2218f220
     Pseudo is Ultrasoft, Zval =  1.0
     Generated using "atomic" code by A. Dal Corso  v.5.1
     Using radial grid of  929 points,  2 beta functions with:
                l(1) =   0
                l(2) =   0
     Q(r) pseudized with 0 coefficients

     atomic species   valence    mass     pseudopotential
        Sr            10.00    87.62000     Sr( 1.00)
        O              6.00    15.99900     O ( 1.00)
        Co            17.00    58.93319     Co( 1.00)
        H              1.00     1.00800     H ( 1.00)

     No symmetry found

                                    s                        frac. trans.

      isym =  1     identity

 cryst.   s( 1) = (     1          0          0      )
                  (     0          1          0      )
                  (     0          0          1      )

 cart.    s( 1) = (  1.0000000  0.0000000  0.0000000 )
                  (  0.0000000  1.0000000  0.0000000 )
                  (  0.0000000  0.0000000  1.0000000 )

   Cartesian axes

     site n.     atom                  positions (alat units)
         1           Sr  tau(   1) = (   0.2508693   0.7491307   1.7574407  )
         2           O   tau(   2) = (   0.4985141   0.5014859   1.7715967  )
         3           Sr  tau(   3) = (   0.7482398   0.7454518   1.7648669  )
         4           Sr  tau(   4) = (   0.7441748   0.2558252   1.7667843  )
         5           Sr  tau(   5) = (   0.2508693   0.7491307   1.2696799  )
         6           Sr  tau(   6) = (   0.2508693   0.7491307   0.7632319  )
         7           Co  tau(   7) = (   0.4998914   0.5001086   1.0164559  )
         8           Co  tau(   8) = (   0.4936915   0.5063085   1.5135603  )
         9           O   tau(   9) = (   0.4988895   0.7610401   1.0164559  )
        10           O   tau(  10) = (   0.2389599   0.5011105   1.0164559  )
        11           O   tau(  11) = (   0.0070918   0.7374880   1.0164559  )
        12           O   tau(  12) = (   0.0088340   0.7405089   1.5135603  )
        13           O   tau(  13) = (   0.5066944   0.7415376   1.5135603  )
        14           O   tau(  14) = (   0.2584624   0.4933056   1.5135603  )
        15           O   tau(  15) = (   0.4985141   0.5014859   0.7773880  )
        16           O   tau(  16) = (   0.4985141   0.5014859   1.2555238  )
        17           Sr  tau(  17) = (   0.7482398   0.7454518   0.7706582  )
        18           Sr  tau(  18) = (   0.7482398   0.7454518   1.2622536  )
        19           Sr  tau(  19) = (   0.7441748   0.2558252   0.7725755  )
        20           Sr  tau(  20) = (   0.7441748   0.2558252   1.2603363  )
        21           O   tau(  21) = (   0.7322655   0.0078049   1.5135603  )
        22           O   tau(  22) = (   0.7558175   0.4996027   1.5135603  )
        23           O   tau(  23) = (   0.5003973   0.2441825   1.5135603  )
        24           O   tau(  24) = (   0.7527966   0.4978604   1.0164559  )
        25           O   tau(  25) = (   0.5021396   0.2472034   1.0164559  )
        26           O   tau(  26) = (   0.7517679   0.0000000   1.0164559  )
        27           O   tau(  27) = (   0.0114961   0.4948124   1.7455321  )
        28           O   tau(  28) = (   0.0048226   0.0077944   1.7715967  )
        29           Sr  tau(  29) = (   0.2545482   0.2517602   1.7648669  )
        30           O   tau(  30) = (   0.5048017   0.0015068   1.7786929  )
        31           Co  tau(  31) = (   0.0056869   0.5006215   1.0164559  )
        32           Co  tau(  32) = (   0.0065315   0.4997770   1.5135603  )
        33           Co  tau(  33) = (   0.0061999   0.0064171   1.0164559  )
        34           Co  tau(  34) = (   0.0000000   0.0126169   1.5135603  )
        35           O   tau(  35) = (   0.0114961   0.4948124   1.2815885  )
        36           O   tau(  36) = (   0.0114961   0.4948124   0.7513233  )
        37           O   tau(  37) = (   0.0051979   0.2673486   1.0164559  )
        38           O   tau(  38) = (   0.0130029   0.2478461   1.5135603  )
        39           O   tau(  39) = (   0.0048226   0.0077944   0.7773880  )
        40           O   tau(  40) = (   0.0048226   0.0077944   1.2555238  )
        41           Sr  tau(  41) = (   0.2545482   0.2517602   0.7706582  )
        42           Sr  tau(  42) = (   0.2545482   0.2517602   1.2622536  )
        43           Co  tau(  43) = (   0.4989925   0.0073160   1.5135603  )
        44           Co  tau(  44) = (   0.4998370   0.0064714   1.0164559  )
        45           O   tau(  45) = (   0.5048017   0.0015068   0.7844841  )
        46           O   tau(  46) = (   0.5048017   0.0015068   1.2484277  )
        47           O   tau(  47) = (   0.2621260   0.0059111   1.5135603  )
        48           O   tau(  48) = (   0.2591051   0.0041689   1.0164559  )
        49           O   tau(  49) = (   0.9951520   0.8529874   2.1602013  )
        50           O   tau(  50) = (   0.9951520   0.8529874   2.3186489  )
        51           H   tau(  51) = (   0.9951520   0.8529874   2.4431567  )

   Crystallographic axes

     site n.     atom                  positions (cryst. coord.)
         1           Sr  tau(   1) = (  0.2508693  0.7491307  0.6943562  )
         2           O   tau(   2) = (  0.4985141  0.5014859  0.6999492  )
         3           Sr  tau(   3) = (  0.7482398  0.7454518  0.6972903  )
         4           Sr  tau(   4) = (  0.7441748  0.2558252  0.6980478  )
         5           Sr  tau(   5) = (  0.2508693  0.7491307  0.5016443  )
         6           Sr  tau(   6) = (  0.2508693  0.7491307  0.3015492  )
         7           Co  tau(   7) = (  0.4998914  0.5001086  0.4015968  )
         8           Co  tau(   8) = (  0.4936915  0.5063085  0.5980003  )
         9           O   tau(   9) = (  0.4988895  0.7610401  0.4015968  )
        10           O   tau(  10) = (  0.2389599  0.5011105  0.4015968  )
        11           O   tau(  11) = (  0.0070918  0.7374880  0.4015968  )
        12           O   tau(  12) = (  0.0088340  0.7405089  0.5980003  )
        13           O   tau(  13) = (  0.5066944  0.7415376  0.5980003  )
        14           O   tau(  14) = (  0.2584624  0.4933056  0.5980003  )
        15           O   tau(  15) = (  0.4985141  0.5014859  0.3071422  )
        16           O   tau(  16) = (  0.4985141  0.5014859  0.4960513  )
        17           Sr  tau(  17) = (  0.7482398  0.7454518  0.3044833  )
        18           Sr  tau(  18) = (  0.7482398  0.7454518  0.4987103  )
        19           Sr  tau(  19) = (  0.7441748  0.2558252  0.3052408  )
        20           Sr  tau(  20) = (  0.7441748  0.2558252  0.4979527  )
        21           O   tau(  21) = (  0.7322655  0.0078049  0.5980003  )
        22           O   tau(  22) = (  0.7558175  0.4996027  0.5980003  )
        23           O   tau(  23) = (  0.5003973  0.2441825  0.5980003  )
        24           O   tau(  24) = (  0.7527966  0.4978604  0.4015968  )
        25           O   tau(  25) = (  0.5021396  0.2472034  0.4015968  )
        26           O   tau(  26) = (  0.7517679  0.0000000  0.4015968  )
        27           O   tau(  27) = (  0.0114961  0.4948124  0.6896512  )
        28           O   tau(  28) = (  0.0048226  0.0077944  0.6999492  )
        29           Sr  tau(  29) = (  0.2545482  0.2517602  0.6972903  )
        30           O   tau(  30) = (  0.5048017  0.0015068  0.7027529  )
        31           Co  tau(  31) = (  0.0056869  0.5006215  0.4015968  )
        32           Co  tau(  32) = (  0.0065315  0.4997770  0.5980003  )
        33           Co  tau(  33) = (  0.0061999  0.0064171  0.4015968  )
        34           Co  tau(  34) = (  0.0000000  0.0126169  0.5980003  )
        35           O   tau(  35) = (  0.0114961  0.4948124  0.5063494  )
        36           O   tau(  36) = (  0.0114961  0.4948124  0.2968442  )
        37           O   tau(  37) = (  0.0051979  0.2673486  0.4015968  )
        38           O   tau(  38) = (  0.0130029  0.2478461  0.5980003  )
        39           O   tau(  39) = (  0.0048226  0.0077944  0.3071422  )
        40           O   tau(  40) = (  0.0048226  0.0077944  0.4960513  )
        41           Sr  tau(  41) = (  0.2545482  0.2517602  0.3044833  )
        42           Sr  tau(  42) = (  0.2545482  0.2517602  0.4987103  )
        43           Co  tau(  43) = (  0.4989925  0.0073160  0.5980003  )
        44           Co  tau(  44) = (  0.4998370  0.0064714  0.4015968  )
        45           O   tau(  45) = (  0.5048017  0.0015068  0.3099459  )
        46           O   tau(  46) = (  0.5048017  0.0015068  0.4932477  )
        47           O   tau(  47) = (  0.2621260  0.0059111  0.5980003  )
        48           O   tau(  48) = (  0.2591051  0.0041689  0.4015968  )
        49           O   tau(  49) = (  0.9951520  0.8529874  0.8534850  )
        50           O   tau(  50) = (  0.9951520  0.8529874  0.9160869  )
        51           H   tau(  51) = (  0.9951520  0.8529874  0.9652793  )

     number of k points=    10  Gaussian smearing, width (Ry)=  0.0700
                       cart. coord. in units 2pi/alat
        k(    1) = (   0.0000000   0.0000000   0.0000000), wk =   0.1250000
        k(    2) = (   0.0000000   0.2500000   0.0000000), wk =   0.2500000
        k(    3) = (   0.0000000  -0.5000000   0.0000000), wk =   0.1250000
        k(    4) = (   0.2500000   0.2500000   0.0000000), wk =   0.2500000
        k(    5) = (   0.2500000  -0.5000000   0.0000000), wk =   0.2500000
        k(    6) = (  -0.5000000  -0.5000000   0.0000000), wk =   0.1250000
        k(    7) = (   0.2500000   0.0000000   0.0000000), wk =   0.2500000
        k(    8) = (  -0.5000000   0.0000000   0.0000000), wk =   0.1250000
        k(    9) = (  -0.2500000   0.2500000   0.0000000), wk =   0.2500000
        k(   10) = (  -0.5000000   0.2500000   0.0000000), wk =   0.2500000

                       cryst. coord.
        k(    1) = (   0.0000000   0.0000000   0.0000000), wk =   0.1250000
        k(    2) = (   0.0000000   0.2500000   0.0000000), wk =   0.2500000
        k(    3) = (   0.0000000  -0.5000000   0.0000000), wk =   0.1250000
        k(    4) = (   0.2500000   0.2500000   0.0000000), wk =   0.2500000
        k(    5) = (   0.2500000  -0.5000000   0.0000000), wk =   0.2500000
        k(    6) = (  -0.5000000  -0.5000000   0.0000000), wk =   0.1250000
        k(    7) = (   0.2500000   0.0000000   0.0000000), wk =   0.2500000
        k(    8) = (  -0.5000000   0.0000000   0.0000000), wk =   0.1250000
        k(    9) = (  -0.2500000   0.2500000   0.0000000), wk =   0.2500000
        k(   10) = (  -0.5000000   0.2500000   0.0000000), wk =   0.2500000

     Check: negative core charge=   -0.000004

     Initial potential from superposition of free atoms

     starting charge     428.5961, renormalised to     437.0000

     negative rho (up, down):  7.813E-01 0.000E+00
     Starting wfcs are  381 randomized atomic wfcs
     Checking if some PAW data can be deallocated...

     Self-consistent Calculation

     iteration #  1     ecut=    60.00 Ry     beta= 0.15
     Davidson diagonalization with overlap

     ethr =  1.00E-02,  avg # of iterations =  2.0

     negative rho (up, down):  7.715E-01 0.000E+00

     total energy              =   -4489.29179263 Ry
     estimated scf accuracy    <      49.74852010 Ry

[...]

     total energy              =   -4482.97204852 Ry
     estimated scf accuracy    <       0.00000002 Ry

     iteration # 49     ecut=    60.00 Ry     beta= 0.15
     Davidson diagonalization with overlap

     ethr =  5.34E-12,  avg # of iterations =  4.2

     negative rho (up, down):  7.923E-01 0.000E+00

     End of self-consistent calculation

          k = 0.0000 0.0000 0.0000 ( 65197 PWs)   bands (ev):

   -92.3353 -92.2809 -92.1892 -92.1396 -92.0810 -92.0415 -92.0245 -91.9019
   -55.6884 -55.6674 -55.5470 -55.5364 -55.5285 -55.5231 -55.4863 -55.4588
   -55.4427 -55.4404 -55.4316 -55.3898 -55.3704 -55.3331 -55.3151 -55.2804
   -55.2750 -55.2306 -55.2280 -55.2274 -55.2188 -55.1766 -55.1552 -55.0688
   -30.9224 -30.9033 -30.7626 -30.7361 -30.7168 -30.6759 -30.5379 -30.5043
   -29.4867 -29.4431 -29.4178 -29.3093 -22.2513 -14.7206 -14.6847 -14.5989
   -14.4683 -14.2854 -14.1625 -13.8608 -13.8432 -13.8113 -13.7718 -13.7689
   -13.7295 -13.7223 -13.7038 -13.6889 -13.6654 -13.6331 -13.5695 -13.4225
   -13.2517 -13.2117 -13.1792 -13.1519 -13.1338 -13.0895 -13.0493 -12.9694
   -12.8967 -12.8073 -12.7750 -12.7552 -12.7438 -12.7199 -12.7031 -12.6778
   -12.6512 -12.6376 -12.6094 -12.5764 -12.5719 -12.5597 -12.5585 -12.5418
   -12.4919 -12.4800 -12.4543 -12.4152 -12.3728 -12.3594 -11.9876 -11.8428
   -11.7296 -11.6531 -11.5007 -11.4259 -11.4148 -11.3928 -11.3751 -11.3110
   -11.2939 -11.2590 -11.2302 -11.1194 -11.0384 -11.0349  -5.8487  -3.1574
    -3.1519  -2.5810  -2.3474  -2.1179  -1.9723  -1.9078  -1.7649  -1.4589
    -1.4447  -1.4232  -1.3414  -1.3229  -1.2549  -1.2392  -1.1970  -1.1510
    -0.9717  -0.7482  -0.7198  -0.5686  -0.5551  -0.5114  -0.4937  -0.4496
    -0.4338  -0.3720  -0.3460  -0.2793  -0.2663  -0.1849  -0.0597  -0.0443
    -0.0151   0.0668   0.0708   0.0828   0.1527   0.2315   0.2512   0.3256
     0.3450   0.3996   0.4905   0.5398   0.5627   0.5688   0.8235   0.8380
     1.0086   1.0785   1.1399   1.1843   1.2794   1.2930   1.3097   1.3778
     1.4063   1.4412   1.4997   1.6354   1.6866   1.7107   1.7268   1.7356
     1.8063   1.8849   1.9765   1.9911   2.0455   2.0691   2.1064   2.1307
     2.1364   2.1921   2.2420   2.2521   2.2865   2.3139   2.3828   2.5121
     2.5888   2.6409   2.6584   2.8029   2.8174   2.8651   2.8769   2.9742
     3.0161   3.0348   3.0554   3.0663   3.0715   3.0876   3.1550   3.2661
     3.2997   3.3140   3.3211   3.3872   3.3913   3.4161   3.4247   3.4323
     3.4439   3.4505   3.4635   3.4687   3.4834   3.4918   3.4990   3.5195
     3.5406   3.5460   3.5574   3.5743   3.6982   3.7519   4.4239   4.7622
     4.7894   5.1427   5.3854   5.4874   5.7123   6.2807   6.3218   6.3599
     6.6217   6.6234   6.6775   6.7264   6.9818   7.2068   7.2306   7.3917
     7.4766   7.6540   7.7849   7.9292   7.9372   7.9612   8.0406   8.0578
     8.3066   8.3400   8.3746   8.4541   8.5323   8.5520   8.6089

     occupation numbers
     1.0000   1.0000   1.0000   1.0000   1.0000   1.0000   1.0000   1.0000
     1.0000   1.0000   1.0000   1.0000   1.0000   1.0000   1.0000   1.0000
     1.0000   1.0000   1.0000   1.0000   1.0000   1.0000   1.0000   1.0000
     1.0000   1.0000   1.0000   1.0000   1.0000   1.0000   1.0000   1.0000
     1.0000   1.0000   1.0000   1.0000   1.0000   1.0000   1.0000   1.0000
     1.0000   1.0000   1.0000   1.0000   1.0000   1.0000   1.0000   1.0000
     1.0000   1.0000   1.0000   1.0000   1.0000   1.0000   1.0000   1.0000
     1.0000   1.0000   1.0000   1.0000   1.0000   1.0000   1.0000   1.0000
     1.0000   1.0000   1.0000   1.0000   1.0000   1.0000   1.0000   1.0000
     1.0000   1.0000   1.0000   1.0000   1.0000   1.0000   1.0000   1.0000
     1.0000   1.0000   1.0000   1.0000   1.0000   1.0000   1.0000   1.0000
     1.0000   1.0000   1.0000   1.0000   1.0000   1.0000   1.0000   1.0000
     1.0000   1.0000   1.0000   1.0000   1.0000   1.0000   1.0000   1.0000
     1.0000   1.0000   1.0000   1.0000   1.0000   1.0000   1.0000   1.0000
     1.0000   1.0000   1.0000   1.0000   1.0000   1.0000   1.0000   1.0000
     1.0000   1.0000   1.0000   1.0000   1.0000   1.0000   1.0000   1.0000
     1.0000   1.0000   1.0000   1.0000   1.0000   1.0000   1.0000   1.0000
     1.0000   1.0000   1.0000   1.0000   1.0000   1.0000   1.0000   1.0000
     1.0000   1.0000   1.0000   1.0000   1.0000   1.0000   1.0000   1.0000
     1.0000   1.0000   1.0000   1.0000   1.0000   1.0000   1.0000   1.0000
     1.0000   0.9999   0.9999   0.9999   0.9998   0.9998   0.9998   0.9997
     0.9997   0.9996   0.9994   0.9989   0.9985   0.9984   0.9982   0.9982
     0.9974   0.9963   0.9946   0.9942   0.9927   0.9920   0.9907   0.9897
     0.9895   0.9870   0.9843   0.9837   0.9815   0.9796   0.9740   0.9600
     0.9492   0.9405   0.9374   0.9064   0.9027   0.8900   0.8866   0.8564
     0.8419   0.8351   0.8274   0.8232   0.8212   0.8149   0.7870   0.7360
     0.7194   0.7122   0.7086   0.6741   0.6718   0.6584   0.6538   0.6496
     0.6432   0.6395   0.6323   0.6294   0.6211   0.6163   0.6122   0.6005
     0.5884   0.5852   0.5787   0.5688   0.4957   0.4640   0.1383   0.0559
     0.0514   0.0156   0.0059   0.0038   0.0013   0.0001   0.0000   0.0000
     0.0000   0.0000   0.0000   0.0000   0.0000   0.0000   0.0000   0.0000
     0.0000   0.0000   0.0000   0.0000   0.0000   0.0000   0.0000   0.0000
     0.0000   0.0000   0.0000   0.0000   0.0000   0.0000   0.0000

[...]

          k =-0.5000-0.5000 0.0000 ( 65132 PWs)   bands (ev):

[...]

          k = 0.2500 0.0000 0.0000 ( 65257 PWs)   bands (ev):

[...]

          k =-0.5000 0.2500 0.0000 ( 65138 PWs)   bands (ev):

   -92.3353 -92.2809 -92.1892 -92.1396 -92.0810 -92.0415 -92.0245 -91.9019
   -55.6884 -55.6674 -55.5470 -55.5364 -55.5285 -55.5231 -55.4863 -55.4588
   -55.4427 -55.4404 -55.4315 -55.3898 -55.3704 -55.3331 -55.3151 -55.2804
   -55.2750 -55.2306 -55.2280 -55.2273 -55.2188 -55.1766 -55.1552 -55.0688
   -30.9182 -30.9072 -30.7621 -30.7341 -30.7182 -30.6768 -30.5372 -30.5055
   -29.4841 -29.4449 -29.4176 -29.3105 -22.2514 -14.6231 -14.5803 -14.5016
   -14.4041 -14.3605 -14.2325 -14.1510 -14.0216 -13.7715 -13.7079 -13.6778
   -13.6658 -13.6230 -13.6040 -13.5760 -13.5419 -13.5370 -13.5142 -13.4743
   -13.4603 -13.3653 -13.2798 -13.2373 -13.2288 -13.2182 -13.1552 -13.1130
   -13.0310 -12.9758 -12.8458 -12.8090 -12.7156 -12.7038 -12.6732 -12.6608
   -12.6425 -12.6158 -12.6016 -12.5855 -12.5752 -12.5089 -12.4746 -12.4542
   -12.4061 -12.3936 -12.2673 -12.2598 -12.1843 -12.1224 -11.9692 -11.9669
   -11.8757 -11.8512 -11.4100 -11.3974 -11.3831 -11.3714 -11.3500 -11.3197
   -11.2393 -11.2307 -11.2073 -11.1718 -11.1434 -11.1345  -5.8487  -3.1578
    -3.1521  -2.0792  -2.0367  -1.8873  -1.8454  -1.6864  -1.6103  -1.4665
    -1.3304  -1.2742  -1.2465  -1.2075  -1.1680  -1.0882  -0.9735  -0.9169
    -0.8934  -0.8680  -0.7933  -0.7626  -0.7264  -0.7067  -0.6463  -0.6193
    -0.5780  -0.5427  -0.5142  -0.4572  -0.4313  -0.3896  -0.3555  -0.2511
    -0.2262  -0.1402  -0.0775  -0.0455   0.0109   0.0971   0.1260   0.2319
     0.2575   0.3224   0.3640   0.3950   0.4740   0.5073   0.5379   0.5924
     0.6293   0.9351   0.9797   1.0516   1.0793   1.3633   1.4246   1.4989
     1.5247   1.7064   1.7423   1.7800   1.7961   1.8136   1.8312   1.8994
     1.9418   1.9769   2.0078   2.1109   2.1553   2.1959   2.2055   2.2354
     2.2663   2.2820   2.2960   2.3178   2.3427   2.3851   2.4106   2.4412
     2.4647   2.4893   2.5588   2.6780   2.7750   2.8043   2.8740   2.9168
     2.9704   3.0125   3.0196   3.0492   3.0576   3.0780   3.0913   3.1144
     3.1984   3.2395   3.2526   3.2598   3.2806   3.3037   3.3166   3.3306
     3.3432   3.3629   3.3769   3.3878   3.3956   3.4055   3.4175   3.9420
     3.9717   4.1375   4.1571   4.4382   4.4900   4.5430   4.7451   5.0627
     5.1641   5.2284   5.3427   5.4543   5.7280   5.7672   5.8379   5.9614
     6.0515   6.1231   6.3377   6.4448   6.5663   6.6493   7.1393   7.3449
     7.4816   7.6543   7.9690   8.0580   8.1881   8.2181   8.3215   8.4035
     8.5268   8.6674   8.6913   8.8152   8.8583   8.8710   8.9325

     occupation numbers
     1.0000   1.0000   1.0000   1.0000   1.0000   1.0000   1.0000   1.0000
     1.0000   1.0000   1.0000   1.0000   1.0000   1.0000   1.0000   1.0000
     1.0000   1.0000   1.0000   1.0000   1.0000   1.0000   1.0000   1.0000
     1.0000   1.0000   1.0000   1.0000   1.0000   1.0000   1.0000   1.0000
     1.0000   1.0000   1.0000   1.0000   1.0000   1.0000   1.0000   1.0000
     1.0000   1.0000   1.0000   1.0000   1.0000   1.0000   1.0000   1.0000
     1.0000   1.0000   1.0000   1.0000   1.0000   1.0000   1.0000   1.0000
     1.0000   1.0000   1.0000   1.0000   1.0000   1.0000   1.0000   1.0000
     1.0000   1.0000   1.0000   1.0000   1.0000   1.0000   1.0000   1.0000
     1.0000   1.0000   1.0000   1.0000   1.0000   1.0000   1.0000   1.0000
     1.0000   1.0000   1.0000   1.0000   1.0000   1.0000   1.0000   1.0000
     1.0000   1.0000   1.0000   1.0000   1.0000   1.0000   1.0000   1.0000
     1.0000   1.0000   1.0000   1.0000   1.0000   1.0000   1.0000   1.0000
     1.0000   1.0000   1.0000   1.0000   1.0000   1.0000   1.0000   1.0000
     1.0000   1.0000   1.0000   1.0000   1.0000   1.0000   1.0000   1.0000
     1.0000   1.0000   1.0000   1.0000   1.0000   1.0000   1.0000   1.0000
     1.0000   1.0000   1.0000   1.0000   1.0000   1.0000   1.0000   1.0000
     1.0000   1.0000   1.0000   1.0000   1.0000   1.0000   1.0000   1.0000
     1.0000   1.0000   1.0000   1.0000   1.0000   1.0000   1.0000   1.0000
     1.0000   1.0000   1.0000   1.0000   1.0000   1.0000   1.0000   1.0000
     1.0000   1.0000   1.0000   1.0000   0.9999   0.9997   0.9996   0.9994
     0.9994   0.9984   0.9981   0.9977   0.9976   0.9973   0.9971   0.9961
     0.9953   0.9945   0.9938   0.9905   0.9887   0.9868   0.9863   0.9847
     0.9828   0.9818   0.9808   0.9793   0.9774   0.9738   0.9714   0.9683
     0.9657   0.9628   0.9536   0.9337   0.9131   0.9060   0.8875   0.8748
     0.8577   0.8431   0.8406   0.8297   0.8266   0.8187   0.8134   0.8041
     0.7678   0.7487   0.7425   0.7390   0.7289   0.7174   0.7109   0.7038
     0.6972   0.6869   0.6795   0.6738   0.6695   0.6642   0.6577   0.3547
     0.3384   0.2537   0.2445   0.1336   0.1177   0.1029   0.0588   0.0208
     0.0144   0.0112   0.0071   0.0044   0.0012   0.0010   0.0007   0.0004
     0.0002   0.0002   0.0000   0.0000   0.0000   0.0000   0.0000   0.0000
     0.0000   0.0000   0.0000   0.0000   0.0000   0.0000   0.0000   0.0000
     0.0000   0.0000   0.0000   0.0000   0.0000   0.0000   0.0000

     the Fermi energy is     3.6910 ev

!    total energy              =   -4482.97204852 Ry
     estimated scf accuracy    <          9.0E-09 Ry
     smearing contrib. (-TS)   =      -1.17243257 Ry
     internal energy E=F+TS    =   -4481.79961595 Ry

     The total energy is F=E-TS. E is the sum of the following terms:
     one-electron contribution =  -20251.44122839 Ry
     hartree contribution      =   10265.42531977 Ry
     xc contribution           =    -701.58098880 Ry
     ewald contribution        =    6491.45408675 Ry
     one-center paw contrib.   =    -285.65680528 Ry
      -> PAW hartree energy AE =      25.18744619 Ry
      -> PAW hartree energy PS =     -25.07112027 Ry
      -> PAW xc energy AE      =     -16.52089881 Ry
      -> PAW xc energy PS      =       6.88055628 Ry
      -> total E_H with PAW    =   10265.54164569 Ry
      -> total E_XC with PAW   =    -711.22133133 Ry

     convergence has been achieved in  49 iterations

     Writing all to output data dir /bsuhome/zayahcortright/scratch/pwscf.save/

     General routines

     Parallel routines

     PAW routines

   This run was terminated on:  20:47:25  20Jun2024

   JOB DONE.