     Program PWSCF v.7.2 starts on 20Jun2024 at 15:43:45

     Reading input from espresso.pwi
Warning: card &CELL ignored
Warning: card / ignored
Warning: card &FCP ignored
Warning: card / ignored
Warning: card &RISM ignored
Warning: card / ignored

     Current dimensions of program PWSCF are:
     Max number of different atomic species (ntypx) = 10
     Max number of k-points (npk) =  40000
     Max angular momentum in pseudopotentials (lmaxx) =  4
     file O.pbe-n-kjpaw_psl.0.1.UPF: wavefunction(s)  2P renormalized
     signal trapping enabled: kill the code with -SIGUSR1 to stop cleanly the simulation

     K-points division:     npool     =       2
     R & G space division:  proc/nbgrp/npool/nimage =      24
     Subspace diagonalization in iterative solution of the eigenvalue problem:
     one sub-group per band group will be used

     Using Slab Decomposition

     bravais-lattice index     =            0
     lattice parameter (alat)  =      14.8599  a.u.
     unit-cell volume          =    8305.1283 (a.u.)^3
     number of atoms/cell      =           51
     number of atomic types    =            4
     number of electrons       =       437.00
     number of Kohn-Sham states=          263
     kinetic-energy cutoff     =      60.0000  Ry
     charge density cutoff     =     480.0000  Ry
     scf convergence threshold =      1.0E-08
     mixing beta               =       0.1500
     number of iterations used =            8  local-TF  mixing
     Exchange-correlation= PBE
                           (   1   4   3   4   0   0   0)

     celldm(1)=  14.859904  celldm(2)=   0.000000  celldm(3)=   0.000000
     celldm(4)=   0.000000  celldm(5)=   0.000000  celldm(6)=   0.000000

     crystal axes: (cart. coord. in units of alat)
               a(1) = (   1.000000   0.000000   0.000000 )
               a(2) = (   0.000000   1.000000   0.000000 )
               a(3) = (   0.000000   0.000000   2.531036 )

     reciprocal axes: (cart. coord. in units 2 pi/alat)
               b(1) = (  1.000000  0.000000  0.000000 )
               b(2) = (  0.000000  1.000000  0.000000 )
               b(3) = (  0.000000  0.000000  0.395095 )

     PseudoPot. # 1 for Sr read from file:
     /bsuhome/zayahcortright/q-e/pseudo/Sr_pbe_v1.uspp.F.UPF
     MD5 check sum: 6b418c05fbe9db5448babca5e47b7a5b
     Pseudo is Ultrasoft + core correction, Zval = 10.0
     Generated by new atomic code, or converted to UPF format
     Using radial grid of  883 points,  6 beta functions with:
                l(1) =   0
                l(2) =   0
                l(3) =   1
                l(4) =   1
                l(5) =   2
                l(6) =   2
     Q(r) pseudized with  6 coefficients,  rinner =    1.400   1.400   1.400
                                                       1.400   1.400

     PseudoPot. # 2 for O  read from file:
     /bsuhome/zayahcortright/q-e/pseudo/O.pbe-n-kjpaw_psl.0.1.UPF
     MD5 check sum: 0234752ac141de4415c5fc33072bef88
     Pseudo is Projector augmented-wave + core cor, Zval =  6.0
     Generated using "atomic" code by A. Dal Corso  v.5.0.99 svn rev. 10869
     Shape of augmentation charge: BESSEL
     Using radial grid of 1095 points,  4 beta functions with:
                l(1) =   0
                l(2) =   0
                l(3) =   1
                l(4) =   1
     Q(r) pseudized with 0 coefficients

     PseudoPot. # 3 for Co read from file:
     /bsuhome/zayahcortright/q-e/pseudo/Co_pbe_v1.2.uspp.F.UPF
     MD5 check sum: 5f91765df6ddd3222702df6e7b74a16d
     Pseudo is Ultrasoft + core correction, Zval = 17.0
     Generated by new atomic code, or converted to UPF format
     Using radial grid of  863 points,  6 beta functions with:
                l(1) =   0
                l(2) =   0
                l(3) =   1
                l(4) =   1
                l(5) =   2
                l(6) =   2
     Q(r) pseudized with  8 coefficients,  rinner =    1.200   1.200   1.200
                                                       1.200   1.200

     PseudoPot. # 4 for H  read from file:
     /bsuhome/zayahcortright/q-e/pseudo/H.pbe-rrkjus_psl.1.0.0.UPF
     MD5 check sum: f52b6d4d1c606e5624b1dc7b2218f220
     Pseudo is Ultrasoft, Zval =  1.0
     Generated using "atomic" code by A. Dal Corso  v.5.1
     Using radial grid of  929 points,  2 beta functions with:
                l(1) =   0
                l(2) =   0
     Q(r) pseudized with 0 coefficients

     atomic species   valence    mass     pseudopotential
        Sr            10.00    87.62000     Sr( 1.00)
        O              6.00    15.99900     O ( 1.00)
        Co            17.00    58.93319     Co( 1.00)
        H              1.00     1.00800     H ( 1.00)

     No symmetry found

                                    s                        frac. trans.

      isym =  1     identity

 cryst.   s( 1) = (     1          0          0      )
                  (     0          1          0      )
                  (     0          0          1      )

 cart.    s( 1) = (  1.0000000  0.0000000  0.0000000 )
                  (  0.0000000  1.0000000  0.0000000 )
                  (  0.0000000  0.0000000  1.0000000 )

   Cartesian axes

     site n.     atom                  positions (alat units)
         1           Sr  tau(   1) = (   0.2508693   0.7491307   1.7574407  )
         2           O   tau(   2) = (   0.4985141   0.5014859   1.7715967  )
         3           Sr  tau(   3) = (   0.7482398   0.7454518   1.7648669  )
         4           Sr  tau(   4) = (   0.7441748   0.2558252   1.7667843  )
         5           Sr  tau(   5) = (   0.2508693   0.7491307   1.2696799  )
         6           Sr  tau(   6) = (   0.2508693   0.7491307   0.7632319  )
         7           Co  tau(   7) = (   0.4998914   0.5001086   1.0164559  )
         8           Co  tau(   8) = (   0.4936915   0.5063085   1.5135603  )
         9           O   tau(   9) = (   0.4988895   0.7610401   1.0164559  )
        10           O   tau(  10) = (   0.2389599   0.5011105   1.0164559  )
        11           O   tau(  11) = (   0.0070918   0.7374880   1.0164559  )
        12           O   tau(  12) = (   0.0088340   0.7405089   1.5135603  )
        13           O   tau(  13) = (   0.5066944   0.7415376   1.5135603  )
        14           O   tau(  14) = (   0.2584624   0.4933056   1.5135603  )
        15           O   tau(  15) = (   0.4985141   0.5014859   0.7773880  )
        16           O   tau(  16) = (   0.4985141   0.5014859   1.2555238  )
        17           Sr  tau(  17) = (   0.7482398   0.7454518   0.7706582  )
        18           Sr  tau(  18) = (   0.7482398   0.7454518   1.2622536  )
        19           Sr  tau(  19) = (   0.7441748   0.2558252   0.7725755  )
        20           Sr  tau(  20) = (   0.7441748   0.2558252   1.2603363  )
        21           O   tau(  21) = (   0.7322655   0.0078049   1.5135603  )
        22           O   tau(  22) = (   0.7558175   0.4996027   1.5135603  )
        23           O   tau(  23) = (   0.5003973   0.2441825   1.5135603  )
        24           O   tau(  24) = (   0.7527966   0.4978604   1.0164559  )
        25           O   tau(  25) = (   0.5021396   0.2472034   1.0164559  )
        26           O   tau(  26) = (   0.7517679   0.0000000   1.0164559  )
        27           O   tau(  27) = (   0.0114961   0.4948124   1.7455321  )
        28           O   tau(  28) = (   0.0048226   0.0077944   1.7715967  )
        29           Sr  tau(  29) = (   0.2545482   0.2517602   1.7648669  )
        30           O   tau(  30) = (   0.5048017   0.0015068   1.7786929  )
        31           Co  tau(  31) = (   0.0056869   0.5006215   1.0164559  )
        32           Co  tau(  32) = (   0.0065315   0.4997770   1.5135603  )
        33           Co  tau(  33) = (   0.0061999   0.0064171   1.0164559  )
        34           Co  tau(  34) = (   0.0000000   0.0126169   1.5135603  )
        35           O   tau(  35) = (   0.0114961   0.4948124   1.2815885  )
        36           O   tau(  36) = (   0.0114961   0.4948124   0.7513233  )
        37           O   tau(  37) = (   0.0051979   0.2673486   1.0164559  )
        38           O   tau(  38) = (   0.0130029   0.2478461   1.5135603  )
        39           O   tau(  39) = (   0.0048226   0.0077944   0.7773880  )
        40           O   tau(  40) = (   0.0048226   0.0077944   1.2555238  )
        41           Sr  tau(  41) = (   0.2545482   0.2517602   0.7706582  )
        42           Sr  tau(  42) = (   0.2545482   0.2517602   1.2622536  )
        43           Co  tau(  43) = (   0.4989925   0.0073160   1.5135603  )
        44           Co  tau(  44) = (   0.4998370   0.0064714   1.0164559  )
        45           O   tau(  45) = (   0.5048017   0.0015068   0.7844841  )
        46           O   tau(  46) = (   0.5048017   0.0015068   1.2484277  )
        47           O   tau(  47) = (   0.2621260   0.0059111   1.5135603  )
        48           O   tau(  48) = (   0.2591051   0.0041689   1.0164559  )
        49           O   tau(  49) = (   0.7108228   0.1421646   2.1602013  )
        50           O   tau(  50) = (   0.7108228   0.1421646   2.3186489  )
        51           H   tau(  51) = (   0.7108228   0.1421646   2.4431567  )

   Crystallographic axes

     site n.     atom                  positions (cryst. coord.)
         1           Sr  tau(   1) = (  0.2508693  0.7491307  0.6943562  )
         2           O   tau(   2) = (  0.4985141  0.5014859  0.6999492  )
         3           Sr  tau(   3) = (  0.7482398  0.7454518  0.6972903  )
         4           Sr  tau(   4) = (  0.7441748  0.2558252  0.6980478  )
         5           Sr  tau(   5) = (  0.2508693  0.7491307  0.5016443  )
         6           Sr  tau(   6) = (  0.2508693  0.7491307  0.3015492  )
         7           Co  tau(   7) = (  0.4998914  0.5001086  0.4015968  )
         8           Co  tau(   8) = (  0.4936915  0.5063085  0.5980003  )
         9           O   tau(   9) = (  0.4988895  0.7610401  0.4015968  )
        10           O   tau(  10) = (  0.2389599  0.5011105  0.4015968  )
        11           O   tau(  11) = (  0.0070918  0.7374880  0.4015968  )
        12           O   tau(  12) = (  0.0088340  0.7405089  0.5980003  )
        13           O   tau(  13) = (  0.5066944  0.7415376  0.5980003  )
        14           O   tau(  14) = (  0.2584624  0.4933056  0.5980003  )
        15           O   tau(  15) = (  0.4985141  0.5014859  0.3071422  )
        16           O   tau(  16) = (  0.4985141  0.5014859  0.4960513  )
        17           Sr  tau(  17) = (  0.7482398  0.7454518  0.3044833  )
        18           Sr  tau(  18) = (  0.7482398  0.7454518  0.4987103  )
        19           Sr  tau(  19) = (  0.7441748  0.2558252  0.3052408  )
        20           Sr  tau(  20) = (  0.7441748  0.2558252  0.4979527  )
        21           O   tau(  21) = (  0.7322655  0.0078049  0.5980003  )
        22           O   tau(  22) = (  0.7558175  0.4996027  0.5980003  )
        23           O   tau(  23) = (  0.5003973  0.2441825  0.5980003  )
        24           O   tau(  24) = (  0.7527966  0.4978604  0.4015968  )
        25           O   tau(  25) = (  0.5021396  0.2472034  0.4015968  )
        26           O   tau(  26) = (  0.7517679  0.0000000  0.4015968  )
        27           O   tau(  27) = (  0.0114961  0.4948124  0.6896512  )
        28           O   tau(  28) = (  0.0048226  0.0077944  0.6999492  )
        29           Sr  tau(  29) = (  0.2545482  0.2517602  0.6972903  )
        30           O   tau(  30) = (  0.5048017  0.0015068  0.7027529  )
        31           Co  tau(  31) = (  0.0056869  0.5006215  0.4015968  )
        32           Co  tau(  32) = (  0.0065315  0.4997770  0.5980003  )
        33           Co  tau(  33) = (  0.0061999  0.0064171  0.4015968  )
        34           Co  tau(  34) = (  0.0000000  0.0126169  0.5980003  )
        35           O   tau(  35) = (  0.0114961  0.4948124  0.5063494  )
        36           O   tau(  36) = (  0.0114961  0.4948124  0.2968442  )
        37           O   tau(  37) = (  0.0051979  0.2673486  0.4015968  )
        38           O   tau(  38) = (  0.0130029  0.2478461  0.5980003  )
        39           O   tau(  39) = (  0.0048226  0.0077944  0.3071422  )
        40           O   tau(  40) = (  0.0048226  0.0077944  0.4960513  )
        41           Sr  tau(  41) = (  0.2545482  0.2517602  0.3044833  )
        42           Sr  tau(  42) = (  0.2545482  0.2517602  0.4987103  )
        43           Co  tau(  43) = (  0.4989925  0.0073160  0.5980003  )
        44           Co  tau(  44) = (  0.4998370  0.0064714  0.4015968  )
        45           O   tau(  45) = (  0.5048017  0.0015068  0.3099459  )
        46           O   tau(  46) = (  0.5048017  0.0015068  0.4932477  )
        47           O   tau(  47) = (  0.2621260  0.0059111  0.5980003  )
        48           O   tau(  48) = (  0.2591051  0.0041689  0.4015968  )
        49           O   tau(  49) = (  0.7108228  0.1421646  0.8534850  )
        50           O   tau(  50) = (  0.7108228  0.1421646  0.9160869  )
        51           H   tau(  51) = (  0.7108228  0.1421646  0.9652793  )

     number of k points=    10  Gaussian smearing, width (Ry)=  0.0700
                       cart. coord. in units 2pi/alat
        k(    1) = (   0.0000000   0.0000000   0.0000000), wk =   0.1250000
        k(    2) = (   0.0000000   0.2500000   0.0000000), wk =   0.2500000
        k(    3) = (   0.0000000  -0.5000000   0.0000000), wk =   0.1250000
        k(    4) = (   0.2500000   0.2500000   0.0000000), wk =   0.2500000
        k(    5) = (   0.2500000  -0.5000000   0.0000000), wk =   0.2500000
        k(    6) = (  -0.5000000  -0.5000000   0.0000000), wk =   0.1250000
        k(    7) = (   0.2500000   0.0000000   0.0000000), wk =   0.2500000
        k(    8) = (  -0.5000000   0.0000000   0.0000000), wk =   0.1250000
        k(    9) = (  -0.2500000   0.2500000   0.0000000), wk =   0.2500000
        k(   10) = (  -0.5000000   0.2500000   0.0000000), wk =   0.2500000

                       cryst. coord.
        k(    1) = (   0.0000000   0.0000000   0.0000000), wk =   0.1250000
        k(    2) = (   0.0000000   0.2500000   0.0000000), wk =   0.2500000
        k(    3) = (   0.0000000  -0.5000000   0.0000000), wk =   0.1250000
        k(    4) = (   0.2500000   0.2500000   0.0000000), wk =   0.2500000
        k(    5) = (   0.2500000  -0.5000000   0.0000000), wk =   0.2500000
        k(    6) = (  -0.5000000  -0.5000000   0.0000000), wk =   0.1250000
        k(    7) = (   0.2500000   0.0000000   0.0000000), wk =   0.2500000
        k(    8) = (  -0.5000000   0.0000000   0.0000000), wk =   0.1250000
        k(    9) = (  -0.2500000   0.2500000   0.0000000), wk =   0.2500000
        k(   10) = (  -0.5000000   0.2500000   0.0000000), wk =   0.2500000

     Check: negative core charge=   -0.000004

     Initial potential from superposition of free atoms

     starting charge     428.5961, renormalised to     437.0000

     negative rho (up, down):  7.813E-01 0.000E+00
     Starting wfcs are  381 randomized atomic wfcs
     Checking if some PAW data can be deallocated...

     Self-consistent Calculation

     iteration #  1     ecut=    60.00 Ry     beta= 0.15
     Davidson diagonalization with overlap

     ethr =  1.00E-02,  avg # of iterations =  2.0

     negative rho (up, down):  7.716E-01 0.000E+00

     total energy              =   -4489.32086899 Ry
     estimated scf accuracy    <      49.69045167 Ry

[...]

     total energy              =   -4482.97556750 Ry
     estimated scf accuracy    <       0.00000001 Ry

     iteration # 53     ecut=    60.00 Ry     beta= 0.15
     Davidson diagonalization with overlap

     ethr =  2.55E-12,  avg # of iterations =  4.0

     negative rho (up, down):  7.923E-01 0.000E+00

     End of self-consistent calculation

          k = 0.0000 0.0000 0.0000 ( 65197 PWs)   bands (ev):

   -92.3417 -92.2859 -92.1953 -92.1476 -92.0879 -92.0479 -92.0305 -91.9076
   -55.6949 -55.6722 -55.5533 -55.5428 -55.5350 -55.5295 -55.4909 -55.4650
   -55.4486 -55.4469 -55.4374 -55.3960 -55.3790 -55.3397 -55.3212 -55.2878
   -55.2828 -55.2368 -55.2345 -55.2337 -55.2252 -55.1821 -55.1613 -55.0746
   -30.9284 -30.9096 -30.7954 -30.7683 -30.6816 -30.6368 -30.5292 -30.4966
   -29.4926 -29.4503 -29.4234 -29.3150 -22.2543 -14.7267 -14.6910 -14.6041
   -14.4741 -14.2903 -14.1679 -13.8665 -13.8521 -13.8186 -13.7870 -13.7704
   -13.7336 -13.7239 -13.7084 -13.6928 -13.6773 -13.6298 -13.5764 -13.4275
   -13.2584 -13.2169 -13.1842 -13.1587 -13.1387 -13.0914 -13.0535 -12.9754
   -12.9024 -12.8008 -12.7876 -12.7613 -12.7489 -12.7262 -12.7075 -12.6833
   -12.6534 -12.6434 -12.6098 -12.5867 -12.5837 -12.5693 -12.5452 -12.5334
   -12.4760 -12.4615 -12.4453 -12.4047 -12.3600 -12.3519 -11.9935 -11.8486
   -11.7164 -11.6507 -11.5068 -11.4322 -11.4208 -11.3991 -11.3814 -11.3172
   -11.2997 -11.2657 -11.2359 -11.1249 -11.0444 -11.0409  -5.9428  -3.1575
    -3.1507  -2.5871  -2.3535  -2.1241  -1.9783  -1.9139  -1.7709  -1.4652
    -1.4509  -1.4295  -1.3483  -1.3289  -1.2609  -1.2454  -1.2029  -1.1584
    -0.9774  -0.7558  -0.7259  -0.5748  -0.5611  -0.5182  -0.4982  -0.4549
    -0.4397  -0.3786  -0.3518  -0.2836  -0.2712  -0.1909  -0.0649  -0.0503
    -0.0213   0.0557   0.0621   0.0762   0.1462   0.2249   0.2589   0.3177
     0.3437   0.3974   0.4777   0.5347   0.5542   0.5622   0.8170   0.8342
     1.0042   1.0755   1.1392   1.1743   1.2739   1.2870   1.3019   1.3733
     1.4007   1.4359   1.4946   1.6292   1.6819   1.7025   1.7188   1.7312
     1.8012   1.8791   1.9714   1.9859   2.0462   2.0668   2.1041   2.1252
     2.1295   2.1869   2.2367   2.2563   2.2809   2.3137   2.3781   2.5069
     2.5866   2.6352   2.6472   2.8023   2.8154   2.8610   2.8708   2.9685
     3.0116   3.0345   3.0386   3.0543   3.0658   3.0694   3.1483   3.2602
     3.2931   3.3079   3.3149   3.3814   3.3854   3.4103   3.4185   3.4258
     3.4358   3.4451   3.4572   3.4627   3.4769   3.4851   3.4929   3.5135
     3.5349   3.5399   3.5516   3.5745   3.6928   3.7406   4.4190   4.7443
     4.7986   5.1359   5.3861   5.4702   5.7138   6.2720   6.3165   6.3473
     6.6233   6.6324   6.6717   6.7197   6.9760   7.1347   7.2487   7.3162
     7.6104   7.6501   7.8364   7.9142   7.9472   7.9566   7.9867   8.0498
     8.3210   8.3474   8.3929   8.4478   8.5344   8.5936   8.6167

     occupation numbers
     1.0000   1.0000   1.0000   1.0000   1.0000   1.0000   1.0000   1.0000
     1.0000   1.0000   1.0000   1.0000   1.0000   1.0000   1.0000   1.0000
     1.0000   1.0000   1.0000   1.0000   1.0000   1.0000   1.0000   1.0000
     1.0000   1.0000   1.0000   1.0000   1.0000   1.0000   1.0000   1.0000
     1.0000   1.0000   1.0000   1.0000   1.0000   1.0000   1.0000   1.0000
     1.0000   1.0000   1.0000   1.0000   1.0000   1.0000   1.0000   1.0000
     1.0000   1.0000   1.0000   1.0000   1.0000   1.0000   1.0000   1.0000
     1.0000   1.0000   1.0000   1.0000   1.0000   1.0000   1.0000   1.0000
     1.0000   1.0000   1.0000   1.0000   1.0000   1.0000   1.0000   1.0000
     1.0000   1.0000   1.0000   1.0000   1.0000   1.0000   1.0000   1.0000
     1.0000   1.0000   1.0000   1.0000   1.0000   1.0000   1.0000   1.0000
     1.0000   1.0000   1.0000   1.0000   1.0000   1.0000   1.0000   1.0000
     1.0000   1.0000   1.0000   1.0000   1.0000   1.0000   1.0000   1.0000
     1.0000   1.0000   1.0000   1.0000   1.0000   1.0000   1.0000   1.0000
     1.0000   1.0000   1.0000   1.0000   1.0000   1.0000   1.0000   1.0000
     1.0000   1.0000   1.0000   1.0000   1.0000   1.0000   1.0000   1.0000
     1.0000   1.0000   1.0000   1.0000   1.0000   1.0000   1.0000   1.0000
     1.0000   1.0000   1.0000   1.0000   1.0000   1.0000   1.0000   1.0000
     1.0000   1.0000   1.0000   1.0000   1.0000   1.0000   1.0000   1.0000
     1.0000   1.0000   1.0000   1.0000   1.0000   1.0000   1.0000   1.0000
     1.0000   0.9999   0.9999   0.9999   0.9998   0.9998   0.9998   0.9997
     0.9997   0.9996   0.9994   0.9989   0.9985   0.9984   0.9982   0.9981
     0.9974   0.9963   0.9945   0.9942   0.9925   0.9919   0.9905   0.9897
     0.9895   0.9869   0.9842   0.9830   0.9815   0.9791   0.9738   0.9599
     0.9485   0.9404   0.9383   0.9050   0.9016   0.8894   0.8866   0.8563
     0.8413   0.8329   0.8313   0.8254   0.8210   0.8196   0.7872   0.7358
     0.7196   0.7122   0.7086   0.6738   0.6717   0.6582   0.6537   0.6497
     0.6442   0.6391   0.6323   0.6292   0.6212   0.6166   0.6122   0.6004
     0.5881   0.5852   0.5784   0.5650   0.4952   0.4670   0.1378   0.0578
     0.0491   0.0156   0.0058   0.0040   0.0013   0.0001   0.0000   0.0000
     0.0000   0.0000   0.0000   0.0000   0.0000   0.0000   0.0000   0.0000
     0.0000   0.0000   0.0000   0.0000   0.0000   0.0000   0.0000   0.0000
     0.0000   0.0000   0.0000   0.0000   0.0000   0.0000   0.0000

[...]

          k =-0.5000-0.5000 0.0000 ( 65132 PWs)   bands (ev):

[...]

          k = 0.2500 0.0000 0.0000 ( 65257 PWs)   bands (ev):

[...]

          k =-0.5000 0.2500 0.0000 ( 65138 PWs)   bands (ev):

   -92.3417 -92.2859 -92.1953 -92.1476 -92.0879 -92.0479 -92.0305 -91.9076
   -55.6949 -55.6722 -55.5533 -55.5428 -55.5350 -55.5295 -55.4909 -55.4650
   -55.4486 -55.4469 -55.4374 -55.3960 -55.3790 -55.3397 -55.3212 -55.2878
   -55.2828 -55.2367 -55.2345 -55.2337 -55.2252 -55.1821 -55.1613 -55.0746
   -30.9242 -30.9135 -30.7949 -30.7677 -30.6825 -30.6370 -30.5273 -30.4989
   -29.4899 -29.4520 -29.4232 -29.3161 -22.2543 -14.6294 -14.5870 -14.5081
   -14.4083 -14.3645 -14.2388 -14.1581 -14.0252 -13.7835 -13.7139 -13.6852
   -13.6730 -13.6303 -13.6112 -13.5810 -13.5511 -13.5406 -13.5154 -13.4752
   -13.4651 -13.3654 -13.2855 -13.2485 -13.2349 -13.2251 -13.1484 -13.1189
   -13.0325 -12.9715 -12.8522 -12.8157 -12.7313 -12.7066 -12.6778 -12.6665
   -12.6334 -12.6242 -12.5999 -12.5908 -12.5278 -12.5162 -12.4649 -12.4447
   -12.4308 -12.3874 -12.2730 -12.2657 -12.1903 -12.1072 -11.9746 -11.9432
   -11.8776 -11.8455 -11.4159 -11.4035 -11.3895 -11.3773 -11.3567 -11.3266
   -11.2448 -11.2366 -11.2130 -11.1776 -11.1495 -11.1402  -5.9428  -3.1576
    -3.1510  -2.0853  -2.0429  -1.8934  -1.8511  -1.6921  -1.6173  -1.4728
    -1.3362  -1.2811  -1.2532  -1.2142  -1.1742  -1.0943  -0.9794  -0.9229
    -0.8991  -0.8746  -0.8008  -0.7681  -0.7328  -0.7124  -0.6524  -0.6249
    -0.5844  -0.5491  -0.5205  -0.4637  -0.4364  -0.3942  -0.3613  -0.2580
    -0.2311  -0.1482  -0.0817  -0.0528   0.0029   0.0915   0.1234   0.2251
     0.2585   0.3165   0.3663   0.3848   0.4708   0.4969   0.5274   0.5860
     0.6242   0.9232   0.9807   1.0545   1.0702   1.3618   1.4158   1.4955
     1.5167   1.7000   1.7367   1.7739   1.7885   1.8069   1.8249   1.8924
     1.9355   1.9734   1.9994   2.1190   2.1521   2.1891   2.2010   2.2386
     2.2639   2.2771   2.2935   2.3144   2.3381   2.3827   2.4049   2.4353
     2.4603   2.4851   2.5507   2.6666   2.7728   2.8007   2.8704   2.9105
     2.9696   3.0039   3.0138   3.0385   3.0490   3.0607   3.0841   3.1080
     3.1913   3.2336   3.2461   3.2535   3.2745   3.2972   3.3103   3.3239
     3.3381   3.3568   3.3703   3.3810   3.3888   3.3989   3.4107   3.9326
     3.9760   4.1299   4.1524   4.4205   4.4887   4.5394   4.7475   5.0374
     5.1547   5.2204   5.3517   5.4881   5.6973   5.7713   5.8050   5.9229
     6.0536   6.1044   6.3274   6.4813   6.5816   6.6427   7.1520   7.3266
     7.5291   7.6578   7.9665   8.0657   8.1779   8.2375   8.3200   8.4277
     8.5560   8.6022   8.6851   8.7798   8.8756   8.9125   8.9719

     occupation numbers
     1.0000   1.0000   1.0000   1.0000   1.0000   1.0000   1.0000   1.0000
     1.0000   1.0000   1.0000   1.0000   1.0000   1.0000   1.0000   1.0000
     1.0000   1.0000   1.0000   1.0000   1.0000   1.0000   1.0000   1.0000
     1.0000   1.0000   1.0000   1.0000   1.0000   1.0000   1.0000   1.0000
     1.0000   1.0000   1.0000   1.0000   1.0000   1.0000   1.0000   1.0000
     1.0000   1.0000   1.0000   1.0000   1.0000   1.0000   1.0000   1.0000
     1.0000   1.0000   1.0000   1.0000   1.0000   1.0000   1.0000   1.0000
     1.0000   1.0000   1.0000   1.0000   1.0000   1.0000   1.0000   1.0000
     1.0000   1.0000   1.0000   1.0000   1.0000   1.0000   1.0000   1.0000
     1.0000   1.0000   1.0000   1.0000   1.0000   1.0000   1.0000   1.0000
     1.0000   1.0000   1.0000   1.0000   1.0000   1.0000   1.0000   1.0000
     1.0000   1.0000   1.0000   1.0000   1.0000   1.0000   1.0000   1.0000
     1.0000   1.0000   1.0000   1.0000   1.0000   1.0000   1.0000   1.0000
     1.0000   1.0000   1.0000   1.0000   1.0000   1.0000   1.0000   1.0000
     1.0000   1.0000   1.0000   1.0000   1.0000   1.0000   1.0000   1.0000
     1.0000   1.0000   1.0000   1.0000   1.0000   1.0000   1.0000   1.0000
     1.0000   1.0000   1.0000   1.0000   1.0000   1.0000   1.0000   1.0000
     1.0000   1.0000   1.0000   1.0000   1.0000   1.0000   1.0000   1.0000
     1.0000   1.0000   1.0000   1.0000   1.0000   1.0000   1.0000   1.0000
     1.0000   1.0000   1.0000   1.0000   1.0000   1.0000   1.0000   1.0000
     1.0000   1.0000   1.0000   1.0000   0.9999   0.9997   0.9996   0.9994
     0.9994   0.9984   0.9981   0.9977   0.9976   0.9974   0.9971   0.9961
     0.9953   0.9945   0.9938   0.9900   0.9886   0.9868   0.9862   0.9841
     0.9826   0.9817   0.9806   0.9791   0.9772   0.9734   0.9713   0.9682
     0.9655   0.9626   0.9539   0.9347   0.9122   0.9054   0.8867   0.8749
     0.8559   0.8440   0.8405   0.8314   0.8274   0.8229   0.8138   0.8042
     0.7681   0.7486   0.7426   0.7391   0.7288   0.7176   0.7109   0.7040
     0.6966   0.6869   0.6798   0.6740   0.6699   0.6644   0.6580   0.3565
     0.3327   0.2543   0.2437   0.1373   0.1163   0.1022   0.0573   0.0223
     0.0145   0.0113   0.0067   0.0037   0.0014   0.0010   0.0008   0.0004
     0.0002   0.0002   0.0000   0.0000   0.0000   0.0000   0.0000   0.0000
     0.0000   0.0000   0.0000   0.0000   0.0000   0.0000   0.0000   0.0000
     0.0000   0.0000   0.0000   0.0000   0.0000   0.0000   0.0000

     the Fermi energy is     3.6848 ev

!    total energy              =   -4482.97556751 Ry
     estimated scf accuracy    <          9.3E-09 Ry
     smearing contrib. (-TS)   =      -1.17234809 Ry
     internal energy E=F+TS    =   -4481.80321942 Ry

     The total energy is F=E-TS. E is the sum of the following terms:
     one-electron contribution =  -20253.28028556 Ry
     hartree contribution      =   10266.25827085 Ry
     xc contribution           =    -701.58659069 Ry
     ewald contribution        =    6492.45966618 Ry
     one-center paw contrib.   =    -285.65428020 Ry
      -> PAW hartree energy AE =      25.17820229 Ry
      -> PAW hartree energy PS =     -25.06196680 Ry
      -> PAW xc energy AE      =     -16.51960162 Ry
      -> PAW xc energy PS      =       6.87919050 Ry
      -> total E_H with PAW    =   10266.37450633 Ry
      -> total E_XC with PAW   =    -711.22700182 Ry

     convergence has been achieved in  53 iterations

     Writing all to output data dir /bsuhome/zayahcortright/scratch/pwscf.save/

     General routines

     Parallel routines

     PAW routines

   This run was terminated on:  15:58:10  20Jun2024

   JOB DONE.