     Program PWSCF v.7.2 starts on 22Jun2024 at  2: 5:11

     Reading input from espresso.pwi
Warning: card &CELL ignored
Warning: card / ignored
Warning: card &FCP ignored
Warning: card / ignored
Warning: card &RISM ignored
Warning: card / ignored

     Current dimensions of program PWSCF are:
     Max number of different atomic species (ntypx) = 10
     Max number of k-points (npk) =  40000
     Max angular momentum in pseudopotentials (lmaxx) =  4
     file O.pbe-n-kjpaw_psl.0.1.UPF: wavefunction(s)  2P renormalized
     signal trapping enabled: kill the code with -SIGUSR1 to stop cleanly the simulation

     K-points division:     npool     =       2
     R & G space division:  proc/nbgrp/npool/nimage =      24
     Subspace diagonalization in iterative solution of the eigenvalue problem:
     one sub-group per band group will be used

     Using Slab Decomposition

     bravais-lattice index     =            0
     lattice parameter (alat)  =      14.8599  a.u.
     unit-cell volume          =    8305.1283 (a.u.)^3
     number of atoms/cell      =           50
     number of atomic types    =            4
     number of electrons       =       431.00
     number of Kohn-Sham states=          259
     kinetic-energy cutoff     =      60.0000  Ry
     charge density cutoff     =     480.0000  Ry
     scf convergence threshold =      1.0E-08
     mixing beta               =       0.1500
     number of iterations used =            8  local-TF  mixing
     Exchange-correlation= PBE
                           (   1   4   3   4   0   0   0)

     celldm(1)=  14.859904  celldm(2)=   0.000000  celldm(3)=   0.000000
     celldm(4)=   0.000000  celldm(5)=   0.000000  celldm(6)=   0.000000

     crystal axes: (cart. coord. in units of alat)
               a(1) = (   1.000000   0.000000   0.000000 )
               a(2) = (   0.000000   1.000000   0.000000 )
               a(3) = (   0.000000   0.000000   2.531036 )

     reciprocal axes: (cart. coord. in units 2 pi/alat)
               b(1) = (  1.000000  0.000000  0.000000 )
               b(2) = (  0.000000  1.000000  0.000000 )
               b(3) = (  0.000000  0.000000  0.395095 )

     PseudoPot. # 1 for Sr read from file:
     /bsuhome/zayahcortright/q-e/pseudo/Sr_pbe_v1.uspp.F.UPF
     MD5 check sum: 6b418c05fbe9db5448babca5e47b7a5b
     Pseudo is Ultrasoft + core correction, Zval = 10.0
     Generated by new atomic code, or converted to UPF format
     Using radial grid of  883 points,  6 beta functions with:
                l(1) =   0
                l(2) =   0
                l(3) =   1
                l(4) =   1
                l(5) =   2
                l(6) =   2
     Q(r) pseudized with  6 coefficients,  rinner =    1.400   1.400   1.400
                                                       1.400   1.400

     PseudoPot. # 2 for O  read from file:
     /bsuhome/zayahcortright/q-e/pseudo/O.pbe-n-kjpaw_psl.0.1.UPF
     MD5 check sum: 0234752ac141de4415c5fc33072bef88
     Pseudo is Projector augmented-wave + core cor, Zval =  6.0
     Generated using "atomic" code by A. Dal Corso  v.5.0.99 svn rev. 10869
     Shape of augmentation charge: BESSEL
     Using radial grid of 1095 points,  4 beta functions with:
                l(1) =   0
                l(2) =   0
                l(3) =   1
                l(4) =   1
     Q(r) pseudized with 0 coefficients

     PseudoPot. # 3 for Co read from file:
     /bsuhome/zayahcortright/q-e/pseudo/Co_pbe_v1.2.uspp.F.UPF
     MD5 check sum: 5f91765df6ddd3222702df6e7b74a16d
     Pseudo is Ultrasoft + core correction, Zval = 17.0
     Generated by new atomic code, or converted to UPF format
     Using radial grid of  863 points,  6 beta functions with:
                l(1) =   0
                l(2) =   0
                l(3) =   1
                l(4) =   1
                l(5) =   2
                l(6) =   2
     Q(r) pseudized with  8 coefficients,  rinner =    1.200   1.200   1.200
                                                       1.200   1.200

     PseudoPot. # 4 for H  read from file:
     /bsuhome/zayahcortright/q-e/pseudo/H.pbe-rrkjus_psl.1.0.0.UPF
     MD5 check sum: f52b6d4d1c606e5624b1dc7b2218f220
     Pseudo is Ultrasoft, Zval =  1.0
     Generated using "atomic" code by A. Dal Corso  v.5.1
     Using radial grid of  929 points,  2 beta functions with:
                l(1) =   0
                l(2) =   0
     Q(r) pseudized with 0 coefficients

     atomic species   valence    mass     pseudopotential
        Sr            10.00    87.62000     Sr( 1.00)
        O              6.00    15.99900     O ( 1.00)
        Co            17.00    58.93319     Co( 1.00)
        H              1.00     1.00800     H ( 1.00)

     No symmetry found

                                    s                        frac. trans.

      isym =  1     identity

 cryst.   s( 1) = (     1          0          0      )
                  (     0          1          0      )
                  (     0          0          1      )

 cart.    s( 1) = (  1.0000000  0.0000000  0.0000000 )
                  (  0.0000000  1.0000000  0.0000000 )
                  (  0.0000000  0.0000000  1.0000000 )

   Cartesian axes

     site n.     atom                  positions (alat units)
         1           Sr  tau(   1) = (   0.2508693   0.7491307   1.7574407  )
         2           O   tau(   2) = (   0.4985141   0.5014859   1.7715967  )
         3           Sr  tau(   3) = (   0.7482398   0.7454518   1.7648669  )
         4           Sr  tau(   4) = (   0.7441748   0.2558252   1.7667843  )
         5           Sr  tau(   5) = (   0.2508693   0.7491307   1.2696799  )
         6           Sr  tau(   6) = (   0.2508693   0.7491307   0.7632319  )
         7           Co  tau(   7) = (   0.4998914   0.5001086   1.0164559  )
         8           Co  tau(   8) = (   0.4936915   0.5063085   1.5135603  )
         9           O   tau(   9) = (   0.4988895   0.7610401   1.0164559  )
        10           O   tau(  10) = (   0.2389599   0.5011105   1.0164559  )
        11           O   tau(  11) = (   0.0070918   0.7374880   1.0164559  )
        12           O   tau(  12) = (   0.0088340   0.7405089   1.5135603  )
        13           O   tau(  13) = (   0.5066944   0.7415376   1.5135603  )
        14           O   tau(  14) = (   0.2584624   0.4933056   1.5135603  )
        15           O   tau(  15) = (   0.4985141   0.5014859   0.7773880  )
        16           O   tau(  16) = (   0.4985141   0.5014859   1.2555238  )
        17           Sr  tau(  17) = (   0.7482398   0.7454518   0.7706582  )
        18           Sr  tau(  18) = (   0.7482398   0.7454518   1.2622536  )
        19           Sr  tau(  19) = (   0.7441748   0.2558252   0.7725755  )
        20           Sr  tau(  20) = (   0.7441748   0.2558252   1.2603363  )
        21           O   tau(  21) = (   0.7322655   0.0078049   1.5135603  )
        22           O   tau(  22) = (   0.7558175   0.4996027   1.5135603  )
        23           O   tau(  23) = (   0.5003973   0.2441825   1.5135603  )
        24           O   tau(  24) = (   0.7527966   0.4978604   1.0164559  )
        25           O   tau(  25) = (   0.5021396   0.2472034   1.0164559  )
        26           O   tau(  26) = (   0.7517679   0.0000000   1.0164559  )
        27           O   tau(  27) = (   0.0114961   0.4948124   1.7455321  )
        28           O   tau(  28) = (   0.0048226   0.0077944   1.7715967  )
        29           Sr  tau(  29) = (   0.2545482   0.2517602   1.7648669  )
        30           O   tau(  30) = (   0.5048017   0.0015068   1.7786929  )
        31           Co  tau(  31) = (   0.0056869   0.5006215   1.0164559  )
        32           Co  tau(  32) = (   0.0065315   0.4997770   1.5135603  )
        33           Co  tau(  33) = (   0.0061999   0.0064171   1.0164559  )
        34           Co  tau(  34) = (   0.0000000   0.0126169   1.5135603  )
        35           O   tau(  35) = (   0.0114961   0.4948124   1.2815885  )
        36           O   tau(  36) = (   0.0114961   0.4948124   0.7513233  )
        37           O   tau(  37) = (   0.0051979   0.2673486   1.0164559  )
        38           O   tau(  38) = (   0.0130029   0.2478461   1.5135603  )
        39           O   tau(  39) = (   0.0048226   0.0077944   0.7773880  )
        40           O   tau(  40) = (   0.0048226   0.0077944   1.2555238  )
        41           Sr  tau(  41) = (   0.2545482   0.2517602   0.7706582  )
        42           Sr  tau(  42) = (   0.2545482   0.2517602   1.2622536  )
        43           Co  tau(  43) = (   0.4989925   0.0073160   1.5135603  )
        44           Co  tau(  44) = (   0.4998370   0.0064714   1.0164559  )
        45           O   tau(  45) = (   0.5048017   0.0015068   0.7844841  )
        46           O   tau(  46) = (   0.5048017   0.0015068   1.2484277  )
        47           O   tau(  47) = (   0.2621260   0.0059111   1.5135603  )
        48           O   tau(  48) = (   0.2591051   0.0041689   1.0164559  )
        49           O   tau(  49) = (   0.8529874   0.1421646   2.1602013  )
        50           H   tau(  50) = (   0.8529874   0.1421646   2.2847091  )

   Crystallographic axes

     site n.     atom                  positions (cryst. coord.)
         1           Sr  tau(   1) = (  0.2508693  0.7491307  0.6943562  )
         2           O   tau(   2) = (  0.4985141  0.5014859  0.6999492  )
         3           Sr  tau(   3) = (  0.7482398  0.7454518  0.6972903  )
         4           Sr  tau(   4) = (  0.7441748  0.2558252  0.6980478  )
         5           Sr  tau(   5) = (  0.2508693  0.7491307  0.5016443  )
         6           Sr  tau(   6) = (  0.2508693  0.7491307  0.3015492  )
         7           Co  tau(   7) = (  0.4998914  0.5001086  0.4015968  )
         8           Co  tau(   8) = (  0.4936915  0.5063085  0.5980003  )
         9           O   tau(   9) = (  0.4988895  0.7610401  0.4015968  )
        10           O   tau(  10) = (  0.2389599  0.5011105  0.4015968  )
        11           O   tau(  11) = (  0.0070918  0.7374880  0.4015968  )
        12           O   tau(  12) = (  0.0088340  0.7405089  0.5980003  )
        13           O   tau(  13) = (  0.5066944  0.7415376  0.5980003  )
        14           O   tau(  14) = (  0.2584624  0.4933056  0.5980003  )
        15           O   tau(  15) = (  0.4985141  0.5014859  0.3071422  )
        16           O   tau(  16) = (  0.4985141  0.5014859  0.4960513  )
        17           Sr  tau(  17) = (  0.7482398  0.7454518  0.3044833  )
        18           Sr  tau(  18) = (  0.7482398  0.7454518  0.4987103  )
        19           Sr  tau(  19) = (  0.7441748  0.2558252  0.3052408  )
        20           Sr  tau(  20) = (  0.7441748  0.2558252  0.4979527  )
        21           O   tau(  21) = (  0.7322655  0.0078049  0.5980003  )
        22           O   tau(  22) = (  0.7558175  0.4996027  0.5980003  )
        23           O   tau(  23) = (  0.5003973  0.2441825  0.5980003  )
        24           O   tau(  24) = (  0.7527966  0.4978604  0.4015968  )
        25           O   tau(  25) = (  0.5021396  0.2472034  0.4015968  )
        26           O   tau(  26) = (  0.7517679  0.0000000  0.4015968  )
        27           O   tau(  27) = (  0.0114961  0.4948124  0.6896512  )
        28           O   tau(  28) = (  0.0048226  0.0077944  0.6999492  )
        29           Sr  tau(  29) = (  0.2545482  0.2517602  0.6972903  )
        30           O   tau(  30) = (  0.5048017  0.0015068  0.7027529  )
        31           Co  tau(  31) = (  0.0056869  0.5006215  0.4015968  )
        32           Co  tau(  32) = (  0.0065315  0.4997770  0.5980003  )
        33           Co  tau(  33) = (  0.0061999  0.0064171  0.4015968  )
        34           Co  tau(  34) = (  0.0000000  0.0126169  0.5980003  )
        35           O   tau(  35) = (  0.0114961  0.4948124  0.5063494  )
        36           O   tau(  36) = (  0.0114961  0.4948124  0.2968442  )
        37           O   tau(  37) = (  0.0051979  0.2673486  0.4015968  )
        38           O   tau(  38) = (  0.0130029  0.2478461  0.5980003  )
        39           O   tau(  39) = (  0.0048226  0.0077944  0.3071422  )
        40           O   tau(  40) = (  0.0048226  0.0077944  0.4960513  )
        41           Sr  tau(  41) = (  0.2545482  0.2517602  0.3044833  )
        42           Sr  tau(  42) = (  0.2545482  0.2517602  0.4987103  )
        43           Co  tau(  43) = (  0.4989925  0.0073160  0.5980003  )
        44           Co  tau(  44) = (  0.4998370  0.0064714  0.4015968  )
        45           O   tau(  45) = (  0.5048017  0.0015068  0.3099459  )
        46           O   tau(  46) = (  0.5048017  0.0015068  0.4932477  )
        47           O   tau(  47) = (  0.2621260  0.0059111  0.5980003  )
        48           O   tau(  48) = (  0.2591051  0.0041689  0.4015968  )
        49           O   tau(  49) = (  0.8529874  0.1421646  0.8534850  )
        50           H   tau(  50) = (  0.8529874  0.1421646  0.9026774  )

     number of k points=    10  Gaussian smearing, width (Ry)=  0.0700
                       cart. coord. in units 2pi/alat
        k(    1) = (   0.0000000   0.0000000   0.0000000), wk =   0.1250000
        k(    2) = (   0.0000000   0.2500000   0.0000000), wk =   0.2500000
        k(    3) = (   0.0000000  -0.5000000   0.0000000), wk =   0.1250000
        k(    4) = (   0.2500000   0.2500000   0.0000000), wk =   0.2500000
        k(    5) = (   0.2500000  -0.5000000   0.0000000), wk =   0.2500000
        k(    6) = (  -0.5000000  -0.5000000   0.0000000), wk =   0.1250000
        k(    7) = (   0.2500000   0.0000000   0.0000000), wk =   0.2500000
        k(    8) = (  -0.5000000   0.0000000   0.0000000), wk =   0.1250000
        k(    9) = (  -0.2500000   0.2500000   0.0000000), wk =   0.2500000
        k(   10) = (  -0.5000000   0.2500000   0.0000000), wk =   0.2500000

                       cryst. coord.
        k(    1) = (   0.0000000   0.0000000   0.0000000), wk =   0.1250000
        k(    2) = (   0.0000000   0.2500000   0.0000000), wk =   0.2500000
        k(    3) = (   0.0000000  -0.5000000   0.0000000), wk =   0.1250000
        k(    4) = (   0.2500000   0.2500000   0.0000000), wk =   0.2500000
        k(    5) = (   0.2500000  -0.5000000   0.0000000), wk =   0.2500000
        k(    6) = (  -0.5000000  -0.5000000   0.0000000), wk =   0.1250000
        k(    7) = (   0.2500000   0.0000000   0.0000000), wk =   0.2500000
        k(    8) = (  -0.5000000   0.0000000   0.0000000), wk =   0.1250000
        k(    9) = (  -0.2500000   0.2500000   0.0000000), wk =   0.2500000
        k(   10) = (  -0.5000000   0.2500000   0.0000000), wk =   0.2500000

     Check: negative core charge=   -0.000004

     Initial potential from superposition of free atoms

     starting charge     422.5961, renormalised to     431.0000

     negative rho (up, down):  7.819E-01 0.000E+00
     Starting wfcs are  377 randomized atomic wfcs
     Checking if some PAW data can be deallocated...

     Self-consistent Calculation

     iteration #  1     ecut=    60.00 Ry     beta= 0.15
     Davidson diagonalization with overlap

     ethr =  1.00E-02,  avg # of iterations =  2.0

     negative rho (up, down):  7.716E-01 0.000E+00

     total energy              =   -4446.64152456 Ry
     estimated scf accuracy    <      44.60496154 Ry

[...]

     c_bands:  1 eigenvalues not converged
     ethr =  8.94E-05,  avg # of iterations = 10.2

[...]

     c_bands:  1 eigenvalues not converged
     ethr =  8.38E-08,  avg # of iterations =  7.5

[...]

     total energy              =   -4441.66420861 Ry
     estimated scf accuracy    <       0.00000002 Ry

     iteration # 49     ecut=    60.00 Ry     beta= 0.15
     Davidson diagonalization with overlap

     ethr =  3.49E-12,  avg # of iterations =  2.9

     negative rho (up, down):  7.925E-01 0.000E+00

     End of self-consistent calculation

          k = 0.0000 0.0000 0.0000 ( 65197 PWs)   bands (ev):

   -92.6955 -92.6442 -92.5495 -92.5039 -92.4440 -92.4018 -92.3848 -92.2660
   -56.0490 -56.0310 -55.9068 -55.8961 -55.8907 -55.8830 -55.8481 -55.8186
   -55.8034 -55.8013 -55.7944 -55.7512 -55.7345 -55.6951 -55.6759 -55.6441
   -55.6394 -55.5907 -55.5903 -55.5871 -55.5786 -55.5411 -55.5150 -55.4321
   -31.2729 -31.2537 -31.1116 -31.0675 -31.0249 -30.9292 -30.7581 -30.7024
   -29.8419 -29.8000 -29.7727 -29.6645 -15.0758 -15.0310 -14.9499 -14.8205
   -14.6250 -14.5042 -14.2124 -14.1934 -14.1647 -14.1156 -14.0711 -14.0572
   -14.0493 -14.0310 -14.0157 -13.9748 -13.9540 -13.9242 -13.7715 -13.5918
   -13.5599 -13.5295 -13.4954 -13.4817 -13.4245 -13.3914 -13.3175 -13.2452
   -13.1105 -13.1030 -13.0955 -13.0700 -13.0544 -13.0494 -12.9963 -12.9861
   -12.9682 -12.9459 -12.9180 -12.8970 -12.8678 -12.8495 -12.8244 -12.7397
   -12.7279 -12.7109 -12.6256 -12.5908 -12.5615 -12.3374 -12.1917 -11.9996
   -11.9249 -11.8555 -11.7816 -11.7702 -11.7478 -11.7302 -11.6664 -11.6487
   -11.6149 -11.5846 -11.4731 -11.3938 -11.3902  -2.9353  -2.7033  -2.4738
    -2.3267  -2.2638  -2.1221  -1.8147  -1.8003  -1.7811  -1.6961  -1.6768
    -1.6087  -1.5926  -1.5519  -1.5066  -1.3263  -1.1817  -1.1002  -1.0703
    -0.9253  -0.9104  -0.8643  -0.8428  -0.7986  -0.7829  -0.7281  -0.7009
    -0.6267  -0.6142  -0.5410  -0.4094  -0.3967  -0.3671  -0.2858  -0.2673
    -0.2508  -0.1926  -0.1222  -0.0746  -0.0234   0.0039   0.0728   0.1466
     0.1870   0.2144   0.2295   0.4786   0.4966   0.6684   0.7323   0.7981
     0.8551   0.9391   0.9477   0.9687   1.0298   1.0561   1.0917   1.1480
     1.2796   1.3378   1.3596   1.3837   1.3946   1.4578   1.5270   1.6346
     1.6517   1.7116   1.7223   1.7657   1.7872   1.7928   1.8505   1.9083
     1.9287   1.9583   1.9932   2.0380   2.1669   2.2486   2.2908   2.3191
     2.4489   2.4673   2.4683   2.4863   2.5177   2.5199   2.6389   2.6656
     2.6929   2.7113   2.7247   2.8064   2.9127   2.9457   2.9568   2.9633
     3.0310   3.0349   3.0598   3.0669   3.0761   3.0888   3.0955   3.1092
     3.1147   3.1287   3.1353   3.1427   3.1623   3.1836   3.1889   3.2005
     3.2257   3.3412   3.4226   4.1141   4.4365   4.7737   4.8683   5.0527
     5.7822   5.9427   5.9903   6.0200   6.3199   6.3667   6.4813   6.4942
     6.7382   7.0102   7.0993   7.3231   7.4156   7.6224   7.6632   7.6749
     7.7224   7.8984   7.9515   8.0738   8.1156   8.1702   8.4316   8.5377
     8.7266   8.7974   8.8665

     occupation numbers
     1.0000   1.0000   1.0000   1.0000   1.0000   1.0000   1.0000   1.0000
     1.0000   1.0000   1.0000   1.0000   1.0000   1.0000   1.0000   1.0000
     1.0000   1.0000   1.0000   1.0000   1.0000   1.0000   1.0000   1.0000
     1.0000   1.0000   1.0000   1.0000   1.0000   1.0000   1.0000   1.0000
     1.0000   1.0000   1.0000   1.0000   1.0000   1.0000   1.0000   1.0000
     1.0000   1.0000   1.0000   1.0000   1.0000   1.0000   1.0000   1.0000
     1.0000   1.0000   1.0000   1.0000   1.0000   1.0000   1.0000   1.0000
     1.0000   1.0000   1.0000   1.0000   1.0000   1.0000   1.0000   1.0000
     1.0000   1.0000   1.0000   1.0000   1.0000   1.0000   1.0000   1.0000
     1.0000   1.0000   1.0000   1.0000   1.0000   1.0000   1.0000   1.0000
     1.0000   1.0000   1.0000   1.0000   1.0000   1.0000   1.0000   1.0000
     1.0000   1.0000   1.0000   1.0000   1.0000   1.0000   1.0000   1.0000
     1.0000   1.0000   1.0000   1.0000   1.0000   1.0000   1.0000   1.0000
     1.0000   1.0000   1.0000   1.0000   1.0000   1.0000   1.0000   1.0000
     1.0000   1.0000   1.0000   1.0000   1.0000   1.0000   1.0000   1.0000
     1.0000   1.0000   1.0000   1.0000   1.0000   1.0000   1.0000   1.0000
     1.0000   1.0000   1.0000   1.0000   1.0000   1.0000   1.0000   1.0000
     1.0000   1.0000   1.0000   1.0000   1.0000   1.0000   1.0000   1.0000
     1.0000   1.0000   1.0000   1.0000   1.0000   1.0000   1.0000   1.0000
     1.0000   1.0000   1.0000   1.0000   1.0000   1.0000   0.9999   0.9999
     0.9999   0.9998   0.9998   0.9998   0.9997   0.9996   0.9996   0.9994
     0.9988   0.9985   0.9983   0.9981   0.9980   0.9973   0.9963   0.9941
     0.9937   0.9919   0.9916   0.9900   0.9891   0.9889   0.9861   0.9828
     0.9814   0.9793   0.9766   0.9727   0.9582   0.9462   0.9390   0.9338
     0.9052   0.9005   0.9002   0.8955   0.8868   0.8861   0.8484   0.8389
     0.8288   0.8217   0.8165   0.7825   0.7333   0.7170   0.7114   0.7081
     0.6727   0.6706   0.6571   0.6532   0.6481   0.6411   0.6374   0.6298
     0.6267   0.6188   0.6150   0.6108   0.5996   0.5874   0.5843   0.5775
     0.5628   0.4947   0.4466   0.1228   0.0505   0.0162   0.0113   0.0053
     0.0001   0.0001   0.0000   0.0000   0.0000   0.0000   0.0000   0.0000
     0.0000   0.0000   0.0000   0.0000   0.0000   0.0000   0.0000   0.0000
     0.0000   0.0000   0.0000   0.0000   0.0000   0.0000   0.0000   0.0000
     0.0000   0.0000   0.0000

[...]

          k =-0.5000-0.5000 0.0000 ( 65132 PWs)   bands (ev):

[...]

          k = 0.2500 0.0000 0.0000 ( 65257 PWs)   bands (ev):

[...]

          k =-0.5000 0.2500 0.0000 ( 65138 PWs)   bands (ev):

   -92.6955 -92.6442 -92.5495 -92.5039 -92.4440 -92.4018 -92.3848 -92.2660
   -56.0490 -56.0310 -55.9068 -55.8961 -55.8907 -55.8830 -55.8481 -55.8186
   -55.8034 -55.8013 -55.7944 -55.7512 -55.7345 -55.6951 -55.6759 -55.6441
   -55.6394 -55.5907 -55.5903 -55.5871 -55.5786 -55.5411 -55.5150 -55.4321
   -31.2688 -31.2575 -31.1111 -31.0669 -31.0258 -30.9295 -30.7572 -30.7037
   -29.8392 -29.8018 -29.7725 -29.6657 -14.9765 -14.9311 -14.8528 -14.7491
   -14.7084 -14.5850 -14.4980 -14.3609 -14.0591 -14.0292 -14.0175 -13.9745
   -13.9717 -13.9499 -13.9258 -13.8901 -13.8757 -13.8546 -13.8172 -13.7984
   -13.6902 -13.6317 -13.5824 -13.5776 -13.5636 -13.4643 -13.4567 -13.3234
   -13.2632 -13.1956 -13.1591 -13.0627 -13.0236 -13.0111 -12.9976 -12.9702
   -12.9412 -12.9331 -12.9018 -12.8056 -12.7747 -12.7189 -12.7026 -12.6961
   -12.6188 -12.6094 -12.5929 -12.5339 -12.3666 -12.3172 -12.1999 -12.1578
   -12.1307 -11.7649 -11.7525 -11.7386 -11.7259 -11.7057 -11.6757 -11.5934
   -11.5857 -11.5618 -11.5265 -11.4989 -11.4896  -2.4330  -2.3911  -2.2433
    -2.2006  -2.0399  -1.9639  -1.8227  -1.6854  -1.6297  -1.6021  -1.5641
    -1.5253  -1.4444  -1.3287  -1.2720  -1.2485  -1.2230  -1.1837  -1.1439
    -1.1165  -1.0793  -1.0615  -1.0009  -0.9699  -0.9331  -0.8980  -0.8692
    -0.8111  -0.7826  -0.7403  -0.7068  -0.6025  -0.5765  -0.4857  -0.4232
    -0.3945  -0.3363  -0.2514  -0.2182  -0.1176  -0.0804  -0.0193   0.0303
     0.0547   0.1276   0.1612   0.1979   0.2385   0.2780   0.5935   0.6483
     0.7393   0.7660   1.0235   1.0876   1.1584   1.1819   1.3598   1.3940
     1.4319   1.4426   1.4616   1.4796   1.5470   1.5942   1.6331   1.6630
     1.7853   1.8209   1.8525   1.8696   1.9078   1.9259   1.9440   1.9621
     1.9773   1.9991   2.0486   2.0587   2.0976   2.1227   2.1541   2.2096
     2.3336   2.4233   2.4494   2.4560   2.4755   2.5233   2.5592   2.6280
     2.6599   2.6659   2.7042   2.7352   2.7596   2.8431   2.8856   2.8980
     2.9036   2.9250   2.9469   2.9595   2.9736   2.9880   3.0089   3.0232
     3.0312   3.0395   3.0510   3.0638   3.5934   3.6325   3.7819   3.8015
     4.0986   4.1531   4.2043   4.4157   4.7909   4.8862   5.0497   5.0871
     5.4131   5.4376   5.5937   5.6301   5.7524   5.8001   6.3959   6.4345
     6.4995   6.5697   7.2858   7.3555   7.5807   7.7212   7.7996   7.8870
     7.8977   8.0326   8.2870   8.4114   8.4680   8.5389   8.5771   8.6316
     8.6719   8.7511   8.7689

     occupation numbers
     1.0000   1.0000   1.0000   1.0000   1.0000   1.0000   1.0000   1.0000
     1.0000   1.0000   1.0000   1.0000   1.0000   1.0000   1.0000   1.0000
     1.0000   1.0000   1.0000   1.0000   1.0000   1.0000   1.0000   1.0000
     1.0000   1.0000   1.0000   1.0000   1.0000   1.0000   1.0000   1.0000
     1.0000   1.0000   1.0000   1.0000   1.0000   1.0000   1.0000   1.0000
     1.0000   1.0000   1.0000   1.0000   1.0000   1.0000   1.0000   1.0000
     1.0000   1.0000   1.0000   1.0000   1.0000   1.0000   1.0000   1.0000
     1.0000   1.0000   1.0000   1.0000   1.0000   1.0000   1.0000   1.0000
     1.0000   1.0000   1.0000   1.0000   1.0000   1.0000   1.0000   1.0000
     1.0000   1.0000   1.0000   1.0000   1.0000   1.0000   1.0000   1.0000
     1.0000   1.0000   1.0000   1.0000   1.0000   1.0000   1.0000   1.0000
     1.0000   1.0000   1.0000   1.0000   1.0000   1.0000   1.0000   1.0000
     1.0000   1.0000   1.0000   1.0000   1.0000   1.0000   1.0000   1.0000
     1.0000   1.0000   1.0000   1.0000   1.0000   1.0000   1.0000   1.0000
     1.0000   1.0000   1.0000   1.0000   1.0000   1.0000   1.0000   1.0000
     1.0000   1.0000   1.0000   1.0000   1.0000   1.0000   1.0000   1.0000
     1.0000   1.0000   1.0000   1.0000   1.0000   1.0000   1.0000   1.0000
     1.0000   1.0000   1.0000   1.0000   1.0000   1.0000   1.0000   1.0000
     1.0000   1.0000   1.0000   1.0000   1.0000   1.0000   1.0000   1.0000
     1.0000   1.0000   1.0000   1.0000   1.0000   1.0000   1.0000   1.0000
     0.9999   0.9999   0.9997   0.9996   0.9994   0.9993   0.9983   0.9980
     0.9976   0.9975   0.9973   0.9970   0.9960   0.9951   0.9942   0.9934
     0.9892   0.9876   0.9860   0.9851   0.9828   0.9816   0.9804   0.9791
     0.9779   0.9761   0.9717   0.9707   0.9666   0.9638   0.9599   0.9522
     0.9309   0.9114   0.9051   0.9034   0.8983   0.8851   0.8745   0.8522
     0.8409   0.8388   0.8245   0.8123   0.8024   0.7662   0.7464   0.7405
     0.7378   0.7273   0.7164   0.7100   0.7028   0.6954   0.6844   0.6768
     0.6725   0.6681   0.6619   0.6549   0.3491   0.3278   0.2522   0.2429
     0.1276   0.1114   0.0977   0.0538   0.0152   0.0105   0.0054   0.0046
     0.0010   0.0009   0.0004   0.0003   0.0002   0.0001   0.0000   0.0000
     0.0000   0.0000   0.0000   0.0000   0.0000   0.0000   0.0000   0.0000
     0.0000   0.0000   0.0000   0.0000   0.0000   0.0000   0.0000   0.0000
     0.0000   0.0000   0.0000

     the Fermi energy is     3.3322 ev

!    total energy              =   -4441.66420863 Ry
     estimated scf accuracy    <          8.9E-09 Ry
     smearing contrib. (-TS)   =      -1.15483443 Ry
     internal energy E=F+TS    =   -4440.50937419 Ry

     The total energy is F=E-TS. E is the sum of the following terms:
     one-electron contribution =  -20804.29100557 Ry
     hartree contribution      =   10534.22104567 Ry
     xc contribution           =    -694.18630079 Ry
     ewald contribution        =    6799.91598372 Ry
     one-center paw contrib.   =    -276.16909723 Ry
      -> PAW hartree energy AE =      25.16967910 Ry
      -> PAW hartree energy PS =     -25.05350129 Ry
      -> PAW xc energy AE      =     -16.51846898 Ry
      -> PAW xc energy PS      =       6.87797412 Ry
      -> total E_H with PAW    =   10534.33722349 Ry
      -> total E_XC with PAW   =    -703.82679564 Ry

     convergence has been achieved in  49 iterations

     Writing all to output data dir /bsuhome/zayahcortright/scratch/pwscf.save/

     General routines

     Parallel routines

     PAW routines

   This run was terminated on:   2:20:41  22Jun2024

   JOB DONE.