     Program PWSCF v.7.2 starts on 21Jun2024 at 14:59: 9

     Reading input from espresso.pwi
Warning: card &CELL ignored
Warning: card / ignored
Warning: card &FCP ignored
Warning: card / ignored
Warning: card &RISM ignored
Warning: card / ignored

     Current dimensions of program PWSCF are:
     Max number of different atomic species (ntypx) = 10
     Max number of k-points (npk) =  40000
     Max angular momentum in pseudopotentials (lmaxx) =  4
     file O.pbe-n-kjpaw_psl.0.1.UPF: wavefunction(s)  2P renormalized
     signal trapping enabled: kill the code with -SIGUSR1 to stop cleanly the simulation

     K-points division:     npool     =       2
     R & G space division:  proc/nbgrp/npool/nimage =      24
     Subspace diagonalization in iterative solution of the eigenvalue problem:
     one sub-group per band group will be used

     Using Slab Decomposition

     bravais-lattice index     =            0
     lattice parameter (alat)  =      14.8599  a.u.
     unit-cell volume          =    8305.1283 (a.u.)^3
     number of atoms/cell      =           50
     number of atomic types    =            4
     number of electrons       =       431.00
     number of Kohn-Sham states=          259
     kinetic-energy cutoff     =      60.0000  Ry
     charge density cutoff     =     480.0000  Ry
     scf convergence threshold =      1.0E-08
     mixing beta               =       0.1500
     number of iterations used =            8  local-TF  mixing
     Exchange-correlation= PBE
                           (   1   4   3   4   0   0   0)

     celldm(1)=  14.859904  celldm(2)=   0.000000  celldm(3)=   0.000000
     celldm(4)=   0.000000  celldm(5)=   0.000000  celldm(6)=   0.000000

     crystal axes: (cart. coord. in units of alat)
               a(1) = (   1.000000   0.000000   0.000000 )
               a(2) = (   0.000000   1.000000   0.000000 )
               a(3) = (   0.000000   0.000000   2.531036 )

     reciprocal axes: (cart. coord. in units 2 pi/alat)
               b(1) = (  1.000000  0.000000  0.000000 )
               b(2) = (  0.000000  1.000000  0.000000 )
               b(3) = (  0.000000  0.000000  0.395095 )

     PseudoPot. # 1 for Sr read from file:
     /bsuhome/zayahcortright/q-e/pseudo/Sr_pbe_v1.uspp.F.UPF
     MD5 check sum: 6b418c05fbe9db5448babca5e47b7a5b
     Pseudo is Ultrasoft + core correction, Zval = 10.0
     Generated by new atomic code, or converted to UPF format
     Using radial grid of  883 points,  6 beta functions with:
                l(1) =   0
                l(2) =   0
                l(3) =   1
                l(4) =   1
                l(5) =   2
                l(6) =   2
     Q(r) pseudized with  6 coefficients,  rinner =    1.400   1.400   1.400
                                                       1.400   1.400

     PseudoPot. # 2 for O  read from file:
     /bsuhome/zayahcortright/q-e/pseudo/O.pbe-n-kjpaw_psl.0.1.UPF
     MD5 check sum: 0234752ac141de4415c5fc33072bef88
     Pseudo is Projector augmented-wave + core cor, Zval =  6.0
     Generated using "atomic" code by A. Dal Corso  v.5.0.99 svn rev. 10869
     Shape of augmentation charge: BESSEL
     Using radial grid of 1095 points,  4 beta functions with:
                l(1) =   0
                l(2) =   0
                l(3) =   1
                l(4) =   1
     Q(r) pseudized with 0 coefficients

     PseudoPot. # 3 for Co read from file:
     /bsuhome/zayahcortright/q-e/pseudo/Co_pbe_v1.2.uspp.F.UPF
     MD5 check sum: 5f91765df6ddd3222702df6e7b74a16d
     Pseudo is Ultrasoft + core correction, Zval = 17.0
     Generated by new atomic code, or converted to UPF format
     Using radial grid of  863 points,  6 beta functions with:
                l(1) =   0
                l(2) =   0
                l(3) =   1
                l(4) =   1
                l(5) =   2
                l(6) =   2
     Q(r) pseudized with  8 coefficients,  rinner =    1.200   1.200   1.200
                                                       1.200   1.200

     PseudoPot. # 4 for H  read from file:
     /bsuhome/zayahcortright/q-e/pseudo/H.pbe-rrkjus_psl.1.0.0.UPF
     MD5 check sum: f52b6d4d1c606e5624b1dc7b2218f220
     Pseudo is Ultrasoft, Zval =  1.0
     Generated using "atomic" code by A. Dal Corso  v.5.1
     Using radial grid of  929 points,  2 beta functions with:
                l(1) =   0
                l(2) =   0
     Q(r) pseudized with 0 coefficients

     atomic species   valence    mass     pseudopotential
        Sr            10.00    87.62000     Sr( 1.00)
        O              6.00    15.99900     O ( 1.00)
        Co            17.00    58.93319     Co( 1.00)
        H              1.00     1.00800     H ( 1.00)

     No symmetry found

                                    s                        frac. trans.

      isym =  1     identity

 cryst.   s( 1) = (     1          0          0      )
                  (     0          1          0      )
                  (     0          0          1      )

 cart.    s( 1) = (  1.0000000  0.0000000  0.0000000 )
                  (  0.0000000  1.0000000  0.0000000 )
                  (  0.0000000  0.0000000  1.0000000 )

   Cartesian axes

     site n.     atom                  positions (alat units)
         1           Sr  tau(   1) = (   0.2508693   0.7491307   1.7574407  )
         2           O   tau(   2) = (   0.4985141   0.5014859   1.7715967  )
         3           Sr  tau(   3) = (   0.7482398   0.7454518   1.7648669  )
         4           Sr  tau(   4) = (   0.7441748   0.2558252   1.7667843  )
         5           Sr  tau(   5) = (   0.2508693   0.7491307   1.2696799  )
         6           Sr  tau(   6) = (   0.2508693   0.7491307   0.7632319  )
         7           Co  tau(   7) = (   0.4998914   0.5001086   1.0164559  )
         8           Co  tau(   8) = (   0.4936915   0.5063085   1.5135603  )
         9           O   tau(   9) = (   0.4988895   0.7610401   1.0164559  )
        10           O   tau(  10) = (   0.2389599   0.5011105   1.0164559  )
        11           O   tau(  11) = (   0.0070918   0.7374880   1.0164559  )
        12           O   tau(  12) = (   0.0088340   0.7405089   1.5135603  )
        13           O   tau(  13) = (   0.5066944   0.7415376   1.5135603  )
        14           O   tau(  14) = (   0.2584624   0.4933056   1.5135603  )
        15           O   tau(  15) = (   0.4985141   0.5014859   0.7773880  )
        16           O   tau(  16) = (   0.4985141   0.5014859   1.2555238  )
        17           Sr  tau(  17) = (   0.7482398   0.7454518   0.7706582  )
        18           Sr  tau(  18) = (   0.7482398   0.7454518   1.2622536  )
        19           Sr  tau(  19) = (   0.7441748   0.2558252   0.7725755  )
        20           Sr  tau(  20) = (   0.7441748   0.2558252   1.2603363  )
        21           O   tau(  21) = (   0.7322655   0.0078049   1.5135603  )
        22           O   tau(  22) = (   0.7558175   0.4996027   1.5135603  )
        23           O   tau(  23) = (   0.5003973   0.2441825   1.5135603  )
        24           O   tau(  24) = (   0.7527966   0.4978604   1.0164559  )
        25           O   tau(  25) = (   0.5021396   0.2472034   1.0164559  )
        26           O   tau(  26) = (   0.7517679   0.0000000   1.0164559  )
        27           O   tau(  27) = (   0.0114961   0.4948124   1.7455321  )
        28           O   tau(  28) = (   0.0048226   0.0077944   1.7715967  )
        29           Sr  tau(  29) = (   0.2545482   0.2517602   1.7648669  )
        30           O   tau(  30) = (   0.5048017   0.0015068   1.7786929  )
        31           Co  tau(  31) = (   0.0056869   0.5006215   1.0164559  )
        32           Co  tau(  32) = (   0.0065315   0.4997770   1.5135603  )
        33           Co  tau(  33) = (   0.0061999   0.0064171   1.0164559  )
        34           Co  tau(  34) = (   0.0000000   0.0126169   1.5135603  )
        35           O   tau(  35) = (   0.0114961   0.4948124   1.2815885  )
        36           O   tau(  36) = (   0.0114961   0.4948124   0.7513233  )
        37           O   tau(  37) = (   0.0051979   0.2673486   1.0164559  )
        38           O   tau(  38) = (   0.0130029   0.2478461   1.5135603  )
        39           O   tau(  39) = (   0.0048226   0.0077944   0.7773880  )
        40           O   tau(  40) = (   0.0048226   0.0077944   1.2555238  )
        41           Sr  tau(  41) = (   0.2545482   0.2517602   0.7706582  )
        42           Sr  tau(  42) = (   0.2545482   0.2517602   1.2622536  )
        43           Co  tau(  43) = (   0.4989925   0.0073160   1.5135603  )
        44           Co  tau(  44) = (   0.4998370   0.0064714   1.0164559  )
        45           O   tau(  45) = (   0.5048017   0.0015068   0.7844841  )
        46           O   tau(  46) = (   0.5048017   0.0015068   1.2484277  )
        47           O   tau(  47) = (   0.2621260   0.0059111   1.5135603  )
        48           O   tau(  48) = (   0.2591051   0.0041689   1.0164559  )
        49           O   tau(  49) = (   0.0000000   0.4264937   2.1602013  )
        50           H   tau(  50) = (   0.0000000   0.4264937   2.2847091  )

   Crystallographic axes

     site n.     atom                  positions (cryst. coord.)
         1           Sr  tau(   1) = (  0.2508693  0.7491307  0.6943562  )
         2           O   tau(   2) = (  0.4985141  0.5014859  0.6999492  )
         3           Sr  tau(   3) = (  0.7482398  0.7454518  0.6972903  )
         4           Sr  tau(   4) = (  0.7441748  0.2558252  0.6980478  )
         5           Sr  tau(   5) = (  0.2508693  0.7491307  0.5016443  )
         6           Sr  tau(   6) = (  0.2508693  0.7491307  0.3015492  )
         7           Co  tau(   7) = (  0.4998914  0.5001086  0.4015968  )
         8           Co  tau(   8) = (  0.4936915  0.5063085  0.5980003  )
         9           O   tau(   9) = (  0.4988895  0.7610401  0.4015968  )
        10           O   tau(  10) = (  0.2389599  0.5011105  0.4015968  )
        11           O   tau(  11) = (  0.0070918  0.7374880  0.4015968  )
        12           O   tau(  12) = (  0.0088340  0.7405089  0.5980003  )
        13           O   tau(  13) = (  0.5066944  0.7415376  0.5980003  )
        14           O   tau(  14) = (  0.2584624  0.4933056  0.5980003  )
        15           O   tau(  15) = (  0.4985141  0.5014859  0.3071422  )
        16           O   tau(  16) = (  0.4985141  0.5014859  0.4960513  )
        17           Sr  tau(  17) = (  0.7482398  0.7454518  0.3044833  )
        18           Sr  tau(  18) = (  0.7482398  0.7454518  0.4987103  )
        19           Sr  tau(  19) = (  0.7441748  0.2558252  0.3052408  )
        20           Sr  tau(  20) = (  0.7441748  0.2558252  0.4979527  )
        21           O   tau(  21) = (  0.7322655  0.0078049  0.5980003  )
        22           O   tau(  22) = (  0.7558175  0.4996027  0.5980003  )
        23           O   tau(  23) = (  0.5003973  0.2441825  0.5980003  )
        24           O   tau(  24) = (  0.7527966  0.4978604  0.4015968  )
        25           O   tau(  25) = (  0.5021396  0.2472034  0.4015968  )
        26           O   tau(  26) = (  0.7517679  0.0000000  0.4015968  )
        27           O   tau(  27) = (  0.0114961  0.4948124  0.6896512  )
        28           O   tau(  28) = (  0.0048226  0.0077944  0.6999492  )
        29           Sr  tau(  29) = (  0.2545482  0.2517602  0.6972903  )
        30           O   tau(  30) = (  0.5048017  0.0015068  0.7027529  )
        31           Co  tau(  31) = (  0.0056869  0.5006215  0.4015968  )
        32           Co  tau(  32) = (  0.0065315  0.4997770  0.5980003  )
        33           Co  tau(  33) = (  0.0061999  0.0064171  0.4015968  )
        34           Co  tau(  34) = (  0.0000000  0.0126169  0.5980003  )
        35           O   tau(  35) = (  0.0114961  0.4948124  0.5063494  )
        36           O   tau(  36) = (  0.0114961  0.4948124  0.2968442  )
        37           O   tau(  37) = (  0.0051979  0.2673486  0.4015968  )
        38           O   tau(  38) = (  0.0130029  0.2478461  0.5980003  )
        39           O   tau(  39) = (  0.0048226  0.0077944  0.3071422  )
        40           O   tau(  40) = (  0.0048226  0.0077944  0.4960513  )
        41           Sr  tau(  41) = (  0.2545482  0.2517602  0.3044833  )
        42           Sr  tau(  42) = (  0.2545482  0.2517602  0.4987103  )
        43           Co  tau(  43) = (  0.4989925  0.0073160  0.5980003  )
        44           Co  tau(  44) = (  0.4998370  0.0064714  0.4015968  )
        45           O   tau(  45) = (  0.5048017  0.0015068  0.3099459  )
        46           O   tau(  46) = (  0.5048017  0.0015068  0.4932477  )
        47           O   tau(  47) = (  0.2621260  0.0059111  0.5980003  )
        48           O   tau(  48) = (  0.2591051  0.0041689  0.4015968  )
        49           O   tau(  49) = (  0.0000000  0.4264937  0.8534850  )
        50           H   tau(  50) = (  0.0000000  0.4264937  0.9026774  )

     number of k points=    10  Gaussian smearing, width (Ry)=  0.0700
                       cart. coord. in units 2pi/alat
        k(    1) = (   0.0000000   0.0000000   0.0000000), wk =   0.1250000
        k(    2) = (   0.0000000   0.2500000   0.0000000), wk =   0.2500000
        k(    3) = (   0.0000000  -0.5000000   0.0000000), wk =   0.1250000
        k(    4) = (   0.2500000   0.2500000   0.0000000), wk =   0.2500000
        k(    5) = (   0.2500000  -0.5000000   0.0000000), wk =   0.2500000
        k(    6) = (  -0.5000000  -0.5000000   0.0000000), wk =   0.1250000
        k(    7) = (   0.2500000   0.0000000   0.0000000), wk =   0.2500000
        k(    8) = (  -0.5000000   0.0000000   0.0000000), wk =   0.1250000
        k(    9) = (  -0.2500000   0.2500000   0.0000000), wk =   0.2500000
        k(   10) = (  -0.5000000   0.2500000   0.0000000), wk =   0.2500000

                       cryst. coord.
        k(    1) = (   0.0000000   0.0000000   0.0000000), wk =   0.1250000
        k(    2) = (   0.0000000   0.2500000   0.0000000), wk =   0.2500000
        k(    3) = (   0.0000000  -0.5000000   0.0000000), wk =   0.1250000
        k(    4) = (   0.2500000   0.2500000   0.0000000), wk =   0.2500000
        k(    5) = (   0.2500000  -0.5000000   0.0000000), wk =   0.2500000
        k(    6) = (  -0.5000000  -0.5000000   0.0000000), wk =   0.1250000
        k(    7) = (   0.2500000   0.0000000   0.0000000), wk =   0.2500000
        k(    8) = (  -0.5000000   0.0000000   0.0000000), wk =   0.1250000
        k(    9) = (  -0.2500000   0.2500000   0.0000000), wk =   0.2500000
        k(   10) = (  -0.5000000   0.2500000   0.0000000), wk =   0.2500000

     Check: negative core charge=   -0.000004

     Initial potential from superposition of free atoms

     starting charge     422.5961, renormalised to     431.0000

     negative rho (up, down):  7.820E-01 0.000E+00
     Starting wfcs are  377 randomized atomic wfcs
     Checking if some PAW data can be deallocated...

     Self-consistent Calculation

     iteration #  1     ecut=    60.00 Ry     beta= 0.15
     Davidson diagonalization with overlap

     ethr =  1.00E-02,  avg # of iterations =  2.0

     negative rho (up, down):  7.717E-01 0.000E+00

     total energy              =   -4446.66535468 Ry
     estimated scf accuracy    <      44.90464277 Ry

[...]

     c_bands:  1 eigenvalues not converged
     ethr =  1.01E-05,  avg # of iterations = 11.0

[...]

     c_bands:  1 eigenvalues not converged
     ethr =  1.83E-07,  avg # of iterations = 10.3

[...]

     total energy              =   -4441.66107292 Ry
     estimated scf accuracy    <       0.00000001 Ry

     iteration # 48     ecut=    60.00 Ry     beta= 0.15
     Davidson diagonalization with overlap

     ethr =  2.98E-12,  avg # of iterations =  4.0

     negative rho (up, down):  7.925E-01 0.000E+00

     End of self-consistent calculation

          k = 0.0000 0.0000 0.0000 ( 65197 PWs)   bands (ev):

   -92.7074 -92.6600 -92.5626 -92.5143 -92.4575 -92.4140 -92.3965 -92.2764
   -56.0608 -56.0464 -55.9194 -55.9081 -55.9021 -55.8949 -55.8624 -55.8313
   -55.8151 -55.8136 -55.8104 -55.7644 -55.7450 -55.7083 -55.6896 -55.6577
   -55.6496 -55.6031 -55.6022 -55.5992 -55.5908 -55.5515 -55.5268 -55.4414
   -31.2843 -31.2648 -31.1230 -31.0766 -31.0362 -30.9030 -30.8859 -30.6860
   -29.8547 -29.8114 -29.7854 -29.6769 -15.0876 -15.0396 -14.9614 -14.8326
   -14.6323 -14.5154 -14.2245 -14.2035 -14.1760 -14.1292 -14.0828 -14.0652
   -14.0612 -14.0404 -14.0239 -13.9825 -13.9591 -13.9368 -13.7830 -13.5949
   -13.5717 -13.5413 -13.5015 -13.4826 -13.4376 -13.4041 -13.3287 -13.2561
   -13.1292 -13.1160 -13.1072 -13.0812 -13.0652 -13.0599 -13.0083 -13.0013
   -12.9876 -12.9592 -12.9293 -12.9082 -12.8848 -12.8650 -12.8100 -12.7930
   -12.7617 -12.7550 -12.6341 -12.6182 -12.6042 -12.3489 -12.2027 -12.0174
   -11.9458 -11.8678 -11.7940 -11.7827 -11.7599 -11.7422 -11.6786 -11.6613
   -11.6268 -11.5977 -11.4855 -11.4059 -11.4025  -2.9468  -2.7155  -2.4862
    -2.3366  -2.2760  -2.1341  -1.8257  -1.8109  -1.7926  -1.7041  -1.6878
    -1.6198  -1.6031  -1.5629  -1.5190  -1.3374  -1.1107  -1.1061  -1.0752
    -0.9373  -0.9223  -0.8747  -0.8546  -0.8085  -0.7936  -0.7402  -0.7126
    -0.6383  -0.6269  -0.5532  -0.4212  -0.4090  -0.3778  -0.2981  -0.2766
    -0.2153  -0.1735  -0.1311  -0.0853  -0.0293  -0.0122   0.0538   0.1258
     0.1742   0.1991   0.2085   0.4680   0.4842   0.6634   0.7204   0.7830
     0.8359   0.9203   0.9315   0.9494   1.0179   1.0453   1.0785   1.1359
     1.2675   1.3247   1.3469   1.3755   1.3849   1.4443   1.5147   1.6265
     1.6469   1.6978   1.7079   1.7517   1.7745   1.7856   1.8365   1.9015
     1.9164   1.9431   1.9684   2.0219   2.1532   2.2386   2.2804   2.3020
     2.4336   2.4397   2.4628   2.4685   2.5062   2.5085   2.6205   2.6525
     2.6813   2.7005   2.7205   2.8011   2.9026   2.9393   2.9456   2.9512
     3.0188   3.0254   3.0467   3.0546   3.0634   3.0749   3.0842   3.0981
     3.1049   3.1145   3.1227   3.1297   3.1504   3.1716   3.1766   3.1889
     3.2101   3.3287   3.4130   4.0991   4.4227   4.7653   4.8651   5.0349
     5.8160   5.9541   5.9885   6.0080   6.3077   6.3546   6.4790   6.4891
     6.7700   7.0058   7.1032   7.3124   7.5810   7.6154   7.6502   7.6649
     7.6977   7.9151   7.9478   8.0513   8.1094   8.1662   8.4142   8.4595
     8.7188   8.8380   8.9080

     occupation numbers
     1.0000   1.0000   1.0000   1.0000   1.0000   1.0000   1.0000   1.0000
     1.0000   1.0000   1.0000   1.0000   1.0000   1.0000   1.0000   1.0000
     1.0000   1.0000   1.0000   1.0000   1.0000   1.0000   1.0000   1.0000
     1.0000   1.0000   1.0000   1.0000   1.0000   1.0000   1.0000   1.0000
     1.0000   1.0000   1.0000   1.0000   1.0000   1.0000   1.0000   1.0000
     1.0000   1.0000   1.0000   1.0000   1.0000   1.0000   1.0000   1.0000
     1.0000   1.0000   1.0000   1.0000   1.0000   1.0000   1.0000   1.0000
     1.0000   1.0000   1.0000   1.0000   1.0000   1.0000   1.0000   1.0000
     1.0000   1.0000   1.0000   1.0000   1.0000   1.0000   1.0000   1.0000
     1.0000   1.0000   1.0000   1.0000   1.0000   1.0000   1.0000   1.0000
     1.0000   1.0000   1.0000   1.0000   1.0000   1.0000   1.0000   1.0000
     1.0000   1.0000   1.0000   1.0000   1.0000   1.0000   1.0000   1.0000
     1.0000   1.0000   1.0000   1.0000   1.0000   1.0000   1.0000   1.0000
     1.0000   1.0000   1.0000   1.0000   1.0000   1.0000   1.0000   1.0000
     1.0000   1.0000   1.0000   1.0000   1.0000   1.0000   1.0000   1.0000
     1.0000   1.0000   1.0000   1.0000   1.0000   1.0000   1.0000   1.0000
     1.0000   1.0000   1.0000   1.0000   1.0000   1.0000   1.0000   1.0000
     1.0000   1.0000   1.0000   1.0000   1.0000   1.0000   1.0000   1.0000
     1.0000   1.0000   1.0000   1.0000   1.0000   1.0000   1.0000   1.0000
     1.0000   1.0000   1.0000   1.0000   1.0000   1.0000   0.9999   0.9999
     0.9999   0.9998   0.9998   0.9998   0.9997   0.9996   0.9996   0.9994
     0.9988   0.9985   0.9983   0.9981   0.9980   0.9973   0.9963   0.9940
     0.9935   0.9920   0.9917   0.9901   0.9891   0.9887   0.9862   0.9824
     0.9814   0.9796   0.9776   0.9731   0.9584   0.9459   0.9387   0.9347
     0.9060   0.9045   0.8985   0.8970   0.8866   0.8859   0.8506   0.8392
     0.8286   0.8213   0.8134   0.7796   0.7324   0.7142   0.7109   0.7081
     0.6727   0.6692   0.6576   0.6533   0.6485   0.6421   0.6370   0.6292
     0.6254   0.6200   0.6153   0.6113   0.5995   0.5873   0.5844   0.5773
     0.5649   0.4949   0.4452   0.1237   0.0508   0.0159   0.0109   0.0054
     0.0001   0.0000   0.0000   0.0000   0.0000   0.0000   0.0000   0.0000
     0.0000   0.0000   0.0000   0.0000   0.0000   0.0000   0.0000   0.0000
     0.0000   0.0000   0.0000   0.0000   0.0000   0.0000   0.0000   0.0000
     0.0000   0.0000   0.0000

[...]

          k =-0.5000-0.5000 0.0000 ( 65132 PWs)   bands (ev):

[...]

          k = 0.2500 0.0000 0.0000 ( 65257 PWs)   bands (ev):

[...]

          k =-0.5000 0.2500 0.0000 ( 65138 PWs)   bands (ev):

   -92.7074 -92.6600 -92.5626 -92.5143 -92.4575 -92.4140 -92.3965 -92.2764
   -56.0608 -56.0464 -55.9194 -55.9081 -55.9021 -55.8949 -55.8624 -55.8313
   -55.8151 -55.8136 -55.8104 -55.7644 -55.7450 -55.7083 -55.6896 -55.6577
   -55.6496 -55.6031 -55.6022 -55.5992 -55.5908 -55.5515 -55.5268 -55.4414
   -31.2802 -31.2686 -31.1225 -31.0761 -31.0371 -30.9029 -30.8861 -30.6865
   -29.8521 -29.8131 -29.7852 -29.6781 -14.9875 -14.9392 -14.8627 -14.7612
   -14.7212 -14.5970 -14.5073 -14.3745 -14.0708 -14.0403 -14.0284 -13.9841
   -13.9640 -13.9573 -13.9368 -13.9000 -13.8812 -13.8664 -13.8282 -13.8146
   -13.7090 -13.6436 -13.5943 -13.5865 -13.5461 -13.4755 -13.4642 -13.3527
   -13.3032 -13.2066 -13.1706 -13.0741 -13.0340 -13.0223 -13.0070 -12.9836
   -12.9544 -12.9449 -12.8965 -12.8501 -12.7991 -12.7831 -12.7077 -12.6895
   -12.6364 -12.6265 -12.6179 -12.5454 -12.3855 -12.3279 -12.2626 -12.1641
   -12.1372 -11.7776 -11.7648 -11.7508 -11.7387 -11.7174 -11.6874 -11.6064
   -11.5979 -11.5748 -11.5385 -11.5109 -11.5019  -2.4438  -2.4024  -2.2550
    -2.2130  -2.0509  -1.9724  -1.8340  -1.6977  -1.6392  -1.6128  -1.5748
    -1.5375  -1.4561  -1.3407  -1.2835  -1.2607  -1.2332  -1.1555  -1.1300
    -1.1053  -1.0879  -1.0735  -1.0127  -0.9787  -0.9438  -0.9099  -0.8808
    -0.8218  -0.7947  -0.7537  -0.7164  -0.6109  -0.5882  -0.4823  -0.4385
    -0.3992  -0.3291  -0.2652  -0.2319  -0.1267  -0.0930  -0.0279   0.0153
     0.0808   0.1155   0.1446   0.1770   0.2266   0.2654   0.6026   0.6456
     0.6997   0.7248   1.0104   1.0781   1.1471   1.1781   1.3492   1.3823
     1.4206   1.4311   1.4490   1.4665   1.5365   1.5847   1.6227   1.6618
     1.7688   1.8153   1.8420   1.8518   1.8840   1.9155   1.9325   1.9443
     1.9600   1.9856   2.0274   2.0462   2.0810   2.1074   2.1393   2.1949
     2.3216   2.4100   2.4316   2.4467   2.4597   2.5090   2.5478   2.6110
     2.6490   2.6545   2.6964   2.7261   2.7500   2.8301   2.8741   2.8883
     2.8941   2.9155   2.9350   2.9471   2.9630   2.9759   3.0005   3.0133
     3.0215   3.0308   3.0380   3.0504   3.5817   3.6164   3.7697   3.7884
     4.0705   4.1423   4.1994   4.3946   4.7802   4.8777   5.0442   5.0770
     5.4108   5.4284   5.5881   5.6314   5.7407   5.8120   6.3914   6.4854
     6.5148   6.6145   7.3563   7.3948   7.5749   7.7116   7.7642   7.7977
     7.8874   8.0220   8.3145   8.4337   8.4640   8.5217   8.5621   8.5865
     8.6665   8.7492   8.7550

     occupation numbers
     1.0000   1.0000   1.0000   1.0000   1.0000   1.0000   1.0000   1.0000
     1.0000   1.0000   1.0000   1.0000   1.0000   1.0000   1.0000   1.0000
     1.0000   1.0000   1.0000   1.0000   1.0000   1.0000   1.0000   1.0000
     1.0000   1.0000   1.0000   1.0000   1.0000   1.0000   1.0000   1.0000
     1.0000   1.0000   1.0000   1.0000   1.0000   1.0000   1.0000   1.0000
     1.0000   1.0000   1.0000   1.0000   1.0000   1.0000   1.0000   1.0000
     1.0000   1.0000   1.0000   1.0000   1.0000   1.0000   1.0000   1.0000
     1.0000   1.0000   1.0000   1.0000   1.0000   1.0000   1.0000   1.0000
     1.0000   1.0000   1.0000   1.0000   1.0000   1.0000   1.0000   1.0000
     1.0000   1.0000   1.0000   1.0000   1.0000   1.0000   1.0000   1.0000
     1.0000   1.0000   1.0000   1.0000   1.0000   1.0000   1.0000   1.0000
     1.0000   1.0000   1.0000   1.0000   1.0000   1.0000   1.0000   1.0000
     1.0000   1.0000   1.0000   1.0000   1.0000   1.0000   1.0000   1.0000
     1.0000   1.0000   1.0000   1.0000   1.0000   1.0000   1.0000   1.0000
     1.0000   1.0000   1.0000   1.0000   1.0000   1.0000   1.0000   1.0000
     1.0000   1.0000   1.0000   1.0000   1.0000   1.0000   1.0000   1.0000
     1.0000   1.0000   1.0000   1.0000   1.0000   1.0000   1.0000   1.0000
     1.0000   1.0000   1.0000   1.0000   1.0000   1.0000   1.0000   1.0000
     1.0000   1.0000   1.0000   1.0000   1.0000   1.0000   1.0000   1.0000
     1.0000   1.0000   1.0000   1.0000   1.0000   1.0000   1.0000   1.0000
     1.0000   0.9999   0.9997   0.9996   0.9994   0.9993   0.9983   0.9980
     0.9976   0.9975   0.9973   0.9970   0.9960   0.9950   0.9941   0.9931
     0.9894   0.9873   0.9859   0.9854   0.9835   0.9815   0.9803   0.9795
     0.9783   0.9762   0.9725   0.9707   0.9671   0.9641   0.9602   0.9526
     0.9309   0.9117   0.9065   0.9027   0.8993   0.8858   0.8743   0.8538
     0.8405   0.8385   0.8228   0.8111   0.8014   0.7666   0.7461   0.7393
     0.7365   0.7260   0.7163   0.7102   0.7021   0.6954   0.6825   0.6757
     0.6713   0.6663   0.6624   0.6556   0.3489   0.3300   0.2522   0.2434
     0.1326   0.1111   0.0958   0.0553   0.0151   0.0104   0.0052   0.0045
     0.0010   0.0009   0.0004   0.0003   0.0002   0.0001   0.0000   0.0000
     0.0000   0.0000   0.0000   0.0000   0.0000   0.0000   0.0000   0.0000
     0.0000   0.0000   0.0000   0.0000   0.0000   0.0000   0.0000   0.0000
     0.0000   0.0000   0.0000

     the Fermi energy is     3.3202 ev

!    total energy              =   -4441.66107292 Ry
     estimated scf accuracy    <          5.1E-09 Ry
     smearing contrib. (-TS)   =      -1.15490726 Ry
     internal energy E=F+TS    =   -4440.50616566 Ry

     The total energy is F=E-TS. E is the sum of the following terms:
     one-electron contribution =  -20803.14977683 Ry
     hartree contribution      =   10533.45935259 Ry
     xc contribution           =    -694.18020029 Ry
     ewald contribution        =    6799.53471816 Ry
     one-center paw contrib.   =    -276.17025929 Ry
      -> PAW hartree energy AE =      25.16106771 Ry
      -> PAW hartree energy PS =     -25.04497473 Ry
      -> PAW xc energy AE      =     -16.51726527 Ry
      -> PAW xc energy PS      =       6.87670532 Ry
      -> total E_H with PAW    =   10533.57544557 Ry
      -> total E_XC with PAW   =    -703.82076023 Ry

     convergence has been achieved in  48 iterations

     Writing all to output data dir /bsuhome/zayahcortright/scratch/pwscf.save/

     General routines

     Parallel routines

     PAW routines

   This run was terminated on:  15:14: 6  21Jun2024

   JOB DONE.