     Program PWSCF v.7.2 starts on 21Jun2024 at 14:41:52

     Reading input from espresso.pwi
Warning: card &CELL ignored
Warning: card / ignored
Warning: card &FCP ignored
Warning: card / ignored
Warning: card &RISM ignored
Warning: card / ignored

     Current dimensions of program PWSCF are:
     Max number of different atomic species (ntypx) = 10
     Max number of k-points (npk) =  40000
     Max angular momentum in pseudopotentials (lmaxx) =  4
     file O.pbe-n-kjpaw_psl.0.1.UPF: wavefunction(s)  2P renormalized
     signal trapping enabled: kill the code with -SIGUSR1 to stop cleanly the simulation

     K-points division:     npool     =       2
     R & G space division:  proc/nbgrp/npool/nimage =      24
     Subspace diagonalization in iterative solution of the eigenvalue problem:
     one sub-group per band group will be used

     Using Slab Decomposition

     bravais-lattice index     =            0
     lattice parameter (alat)  =      14.8599  a.u.
     unit-cell volume          =    8305.1283 (a.u.)^3
     number of atoms/cell      =           49
     number of atomic types    =            3
     number of electrons       =       430.00
     number of Kohn-Sham states=          258
     kinetic-energy cutoff     =      60.0000  Ry
     charge density cutoff     =     480.0000  Ry
     scf convergence threshold =      1.0E-08
     mixing beta               =       0.1500
     number of iterations used =            8  local-TF  mixing
     Exchange-correlation= SLA  PW   PBE  PBE
                           (   1   4   3   4   0   0   0)

     celldm(1)=  14.859904  celldm(2)=   0.000000  celldm(3)=   0.000000
     celldm(4)=   0.000000  celldm(5)=   0.000000  celldm(6)=   0.000000

     crystal axes: (cart. coord. in units of alat)
               a(1) = (   1.000000   0.000000   0.000000 )
               a(2) = (   0.000000   1.000000   0.000000 )
               a(3) = (   0.000000   0.000000   2.531036 )

     reciprocal axes: (cart. coord. in units 2 pi/alat)
               b(1) = (  1.000000  0.000000  0.000000 )
               b(2) = (  0.000000  1.000000  0.000000 )
               b(3) = (  0.000000  0.000000  0.395095 )

     PseudoPot. # 1 for Sr read from file:
     /bsuhome/zayahcortright/q-e/pseudo/Sr_pbe_v1.uspp.F.UPF
     MD5 check sum: 6b418c05fbe9db5448babca5e47b7a5b
     Pseudo is Ultrasoft + core correction, Zval = 10.0
     Generated by new atomic code, or converted to UPF format
     Using radial grid of  883 points,  6 beta functions with:
                l(1) =   0
                l(2) =   0
                l(3) =   1
                l(4) =   1
                l(5) =   2
                l(6) =   2
     Q(r) pseudized with  6 coefficients,  rinner =    1.400   1.400   1.400
                                                       1.400   1.400

     PseudoPot. # 2 for O  read from file:
     /bsuhome/zayahcortright/q-e/pseudo/O.pbe-n-kjpaw_psl.0.1.UPF
     MD5 check sum: 0234752ac141de4415c5fc33072bef88
     Pseudo is Projector augmented-wave + core cor, Zval =  6.0
     Generated using "atomic" code by A. Dal Corso  v.5.0.99 svn rev. 10869
     Shape of augmentation charge: BESSEL
     Using radial grid of 1095 points,  4 beta functions with:
                l(1) =   0
                l(2) =   0
                l(3) =   1
                l(4) =   1
     Q(r) pseudized with 0 coefficients

     PseudoPot. # 3 for Co read from file:
     /bsuhome/zayahcortright/q-e/pseudo/Co_pbe_v1.2.uspp.F.UPF
     MD5 check sum: 5f91765df6ddd3222702df6e7b74a16d
     Pseudo is Ultrasoft + core correction, Zval = 17.0
     Generated by new atomic code, or converted to UPF format
     Using radial grid of  863 points,  6 beta functions with:
                l(1) =   0
                l(2) =   0
                l(3) =   1
                l(4) =   1
                l(5) =   2
                l(6) =   2
     Q(r) pseudized with  8 coefficients,  rinner =    1.200   1.200   1.200
                                                       1.200   1.200

     atomic species   valence    mass     pseudopotential
        Sr            10.00    87.62000     Sr( 1.00)
        O              6.00    15.99900     O ( 1.00)
        Co            17.00    58.93319     Co( 1.00)

     No symmetry found

                                    s                        frac. trans.

      isym =  1     identity

 cryst.   s( 1) = (     1          0          0      )
                  (     0          1          0      )
                  (     0          0          1      )

 cart.    s( 1) = (  1.0000000  0.0000000  0.0000000 )
                  (  0.0000000  1.0000000  0.0000000 )
                  (  0.0000000  0.0000000  1.0000000 )

   Cartesian axes

     site n.     atom                  positions (alat units)
         1           Sr  tau(   1) = (   0.2508693   0.7491307   1.7574407  )
         2           O   tau(   2) = (   0.4985141   0.5014859   1.7715967  )
         3           Sr  tau(   3) = (   0.7482398   0.7454518   1.7648669  )
         4           Sr  tau(   4) = (   0.7441748   0.2558252   1.7667843  )
         5           Sr  tau(   5) = (   0.2508693   0.7491307   1.2696799  )
         6           Sr  tau(   6) = (   0.2508693   0.7491307   0.7632319  )
         7           Co  tau(   7) = (   0.4998914   0.5001086   1.0164559  )
         8           Co  tau(   8) = (   0.4936915   0.5063085   1.5135603  )
         9           O   tau(   9) = (   0.4988895   0.7610401   1.0164559  )
        10           O   tau(  10) = (   0.2389599   0.5011105   1.0164559  )
        11           O   tau(  11) = (   0.0070918   0.7374880   1.0164559  )
        12           O   tau(  12) = (   0.0088340   0.7405089   1.5135603  )
        13           O   tau(  13) = (   0.5066944   0.7415376   1.5135603  )
        14           O   tau(  14) = (   0.2584624   0.4933056   1.5135603  )
        15           O   tau(  15) = (   0.4985141   0.5014859   0.7773880  )
        16           O   tau(  16) = (   0.4985141   0.5014859   1.2555238  )
        17           Sr  tau(  17) = (   0.7482398   0.7454518   0.7706582  )
        18           Sr  tau(  18) = (   0.7482398   0.7454518   1.2622536  )
        19           Sr  tau(  19) = (   0.7441748   0.2558252   0.7725755  )
        20           Sr  tau(  20) = (   0.7441748   0.2558252   1.2603363  )
        21           O   tau(  21) = (   0.7322655   0.0078049   1.5135603  )
        22           O   tau(  22) = (   0.7558175   0.4996027   1.5135603  )
        23           O   tau(  23) = (   0.5003973   0.2441825   1.5135603  )
        24           O   tau(  24) = (   0.7527966   0.4978604   1.0164559  )
        25           O   tau(  25) = (   0.5021396   0.2472034   1.0164559  )
        26           O   tau(  26) = (   0.7517679   0.0000000   1.0164559  )
        27           O   tau(  27) = (   0.0114961   0.4948124   1.7455321  )
        28           O   tau(  28) = (   0.0048226   0.0077944   1.7715967  )
        29           Sr  tau(  29) = (   0.2545482   0.2517602   1.7648669  )
        30           O   tau(  30) = (   0.5048017   0.0015068   1.7786929  )
        31           Co  tau(  31) = (   0.0056869   0.5006215   1.0164559  )
        32           Co  tau(  32) = (   0.0065315   0.4997770   1.5135603  )
        33           Co  tau(  33) = (   0.0061999   0.0064171   1.0164559  )
        34           Co  tau(  34) = (   0.0000000   0.0126169   1.5135603  )
        35           O   tau(  35) = (   0.0114961   0.4948124   1.2815885  )
        36           O   tau(  36) = (   0.0114961   0.4948124   0.7513233  )
        37           O   tau(  37) = (   0.0051979   0.2673486   1.0164559  )
        38           O   tau(  38) = (   0.0130029   0.2478461   1.5135603  )
        39           O   tau(  39) = (   0.0048226   0.0077944   0.7773880  )
        40           O   tau(  40) = (   0.0048226   0.0077944   1.2555238  )
        41           Sr  tau(  41) = (   0.2545482   0.2517602   0.7706582  )
        42           Sr  tau(  42) = (   0.2545482   0.2517602   1.2622536  )
        43           Co  tau(  43) = (   0.4989925   0.0073160   1.5135603  )
        44           Co  tau(  44) = (   0.4998370   0.0064714   1.0164559  )
        45           O   tau(  45) = (   0.5048017   0.0015068   0.7844841  )
        46           O   tau(  46) = (   0.5048017   0.0015068   1.2484277  )
        47           O   tau(  47) = (   0.2621260   0.0059111   1.5135603  )
        48           O   tau(  48) = (   0.2591051   0.0041689   1.0164559  )
        49           O   tau(  49) = (   0.0000000   0.2843291   2.1602013  )

   Crystallographic axes

     site n.     atom                  positions (cryst. coord.)
         1           Sr  tau(   1) = (  0.2508693  0.7491307  0.6943562  )
         2           O   tau(   2) = (  0.4985141  0.5014859  0.6999492  )
         3           Sr  tau(   3) = (  0.7482398  0.7454518  0.6972903  )
         4           Sr  tau(   4) = (  0.7441748  0.2558252  0.6980478  )
         5           Sr  tau(   5) = (  0.2508693  0.7491307  0.5016443  )
         6           Sr  tau(   6) = (  0.2508693  0.7491307  0.3015492  )
         7           Co  tau(   7) = (  0.4998914  0.5001086  0.4015968  )
         8           Co  tau(   8) = (  0.4936915  0.5063085  0.5980003  )
         9           O   tau(   9) = (  0.4988895  0.7610401  0.4015968  )
        10           O   tau(  10) = (  0.2389599  0.5011105  0.4015968  )
        11           O   tau(  11) = (  0.0070918  0.7374880  0.4015968  )
        12           O   tau(  12) = (  0.0088340  0.7405089  0.5980003  )
        13           O   tau(  13) = (  0.5066944  0.7415376  0.5980003  )
        14           O   tau(  14) = (  0.2584624  0.4933056  0.5980003  )
        15           O   tau(  15) = (  0.4985141  0.5014859  0.3071422  )
        16           O   tau(  16) = (  0.4985141  0.5014859  0.4960513  )
        17           Sr  tau(  17) = (  0.7482398  0.7454518  0.3044833  )
        18           Sr  tau(  18) = (  0.7482398  0.7454518  0.4987103  )
        19           Sr  tau(  19) = (  0.7441748  0.2558252  0.3052408  )
        20           Sr  tau(  20) = (  0.7441748  0.2558252  0.4979527  )
        21           O   tau(  21) = (  0.7322655  0.0078049  0.5980003  )
        22           O   tau(  22) = (  0.7558175  0.4996027  0.5980003  )
        23           O   tau(  23) = (  0.5003973  0.2441825  0.5980003  )
        24           O   tau(  24) = (  0.7527966  0.4978604  0.4015968  )
        25           O   tau(  25) = (  0.5021396  0.2472034  0.4015968  )
        26           O   tau(  26) = (  0.7517679  0.0000000  0.4015968  )
        27           O   tau(  27) = (  0.0114961  0.4948124  0.6896512  )
        28           O   tau(  28) = (  0.0048226  0.0077944  0.6999492  )
        29           Sr  tau(  29) = (  0.2545482  0.2517602  0.6972903  )
        30           O   tau(  30) = (  0.5048017  0.0015068  0.7027529  )
        31           Co  tau(  31) = (  0.0056869  0.5006215  0.4015968  )
        32           Co  tau(  32) = (  0.0065315  0.4997770  0.5980003  )
        33           Co  tau(  33) = (  0.0061999  0.0064171  0.4015968  )
        34           Co  tau(  34) = (  0.0000000  0.0126169  0.5980003  )
        35           O   tau(  35) = (  0.0114961  0.4948124  0.5063494  )
        36           O   tau(  36) = (  0.0114961  0.4948124  0.2968442  )
        37           O   tau(  37) = (  0.0051979  0.2673486  0.4015968  )
        38           O   tau(  38) = (  0.0130029  0.2478461  0.5980003  )
        39           O   tau(  39) = (  0.0048226  0.0077944  0.3071422  )
        40           O   tau(  40) = (  0.0048226  0.0077944  0.4960513  )
        41           Sr  tau(  41) = (  0.2545482  0.2517602  0.3044833  )
        42           Sr  tau(  42) = (  0.2545482  0.2517602  0.4987103  )
        43           Co  tau(  43) = (  0.4989925  0.0073160  0.5980003  )
        44           Co  tau(  44) = (  0.4998370  0.0064714  0.4015968  )
        45           O   tau(  45) = (  0.5048017  0.0015068  0.3099459  )
        46           O   tau(  46) = (  0.5048017  0.0015068  0.4932477  )
        47           O   tau(  47) = (  0.2621260  0.0059111  0.5980003  )
        48           O   tau(  48) = (  0.2591051  0.0041689  0.4015968  )
        49           O   tau(  49) = (  0.0000000  0.2843291  0.8534850  )

     number of k points=    10  Gaussian smearing, width (Ry)=  0.0700
                       cart. coord. in units 2pi/alat
        k(    1) = (   0.0000000   0.0000000   0.0000000), wk =   0.1250000
        k(    2) = (   0.0000000   0.2500000   0.0000000), wk =   0.2500000
        k(    3) = (   0.0000000  -0.5000000   0.0000000), wk =   0.1250000
        k(    4) = (   0.2500000   0.2500000   0.0000000), wk =   0.2500000
        k(    5) = (   0.2500000  -0.5000000   0.0000000), wk =   0.2500000
        k(    6) = (  -0.5000000  -0.5000000   0.0000000), wk =   0.1250000
        k(    7) = (   0.2500000   0.0000000   0.0000000), wk =   0.2500000
        k(    8) = (  -0.5000000   0.0000000   0.0000000), wk =   0.1250000
        k(    9) = (  -0.2500000   0.2500000   0.0000000), wk =   0.2500000
        k(   10) = (  -0.5000000   0.2500000   0.0000000), wk =   0.2500000

                       cryst. coord.
        k(    1) = (   0.0000000   0.0000000   0.0000000), wk =   0.1250000
        k(    2) = (   0.0000000   0.2500000   0.0000000), wk =   0.2500000
        k(    3) = (   0.0000000  -0.5000000   0.0000000), wk =   0.1250000
        k(    4) = (   0.2500000   0.2500000   0.0000000), wk =   0.2500000
        k(    5) = (   0.2500000  -0.5000000   0.0000000), wk =   0.2500000
        k(    6) = (  -0.5000000  -0.5000000   0.0000000), wk =   0.1250000
        k(    7) = (   0.2500000   0.0000000   0.0000000), wk =   0.2500000
        k(    8) = (  -0.5000000   0.0000000   0.0000000), wk =   0.1250000
        k(    9) = (  -0.2500000   0.2500000   0.0000000), wk =   0.2500000
        k(   10) = (  -0.5000000   0.2500000   0.0000000), wk =   0.2500000

     Check: negative core charge=   -0.000004

     Initial potential from superposition of free atoms

     starting charge     421.5961, renormalised to     430.0000

     negative rho (up, down):  7.826E-01 0.000E+00
     Starting wfcs are  376 randomized atomic wfcs
     Checking if some PAW data can be deallocated...

     Self-consistent Calculation

     iteration #  1     ecut=    60.00 Ry     beta= 0.15
     Davidson diagonalization with overlap

     ethr =  1.00E-02,  avg # of iterations =  2.0

     negative rho (up, down):  7.717E-01 0.000E+00

     total energy              =   -4445.22701035 Ry
     estimated scf accuracy    <      53.97150056 Ry

[...]

     c_bands:  1 eigenvalues not converged
     ethr =  4.92E-05,  avg # of iterations = 15.4

[...]

     c_bands:  1 eigenvalues not converged
     ethr =  2.39E-08,  avg # of iterations =  7.0

[...]

     total energy              =   -4440.30460675 Ry
     estimated scf accuracy    <       0.00000001 Ry

     iteration # 49     ecut=    60.00 Ry     beta= 0.15
     Davidson diagonalization with overlap

     ethr =  2.72E-12,  avg # of iterations =  2.1

     negative rho (up, down):  7.926E-01 0.000E+00

     End of self-consistent calculation

          k = 0.0000 0.0000 0.0000 ( 65197 PWs)   bands (ev):

   -92.8859 -92.8362 -92.7407 -92.6937 -92.6354 -92.5926 -92.5753 -92.4559
   -56.2395 -56.2223 -56.0973 -56.0864 -56.0808 -56.0733 -56.0395 -56.0094
   -55.9942 -55.9924 -55.9865 -55.9423 -55.9243 -55.8862 -55.8677 -55.8357
   -55.8292 -55.7820 -55.7805 -55.7774 -55.7691 -55.7307 -55.7053 -55.6208
   -31.4498 -31.4299 -31.2875 -31.2754 -31.2005 -31.0804 -30.9780 -30.7641
   -30.0311 -29.9879 -29.9611 -29.8526 -15.2622 -15.2134 -15.1358 -15.0062
   -14.8047 -14.6851 -14.3983 -14.3771 -14.3503 -14.3022 -14.2533 -14.2354
   -14.2321 -14.2133 -14.1995 -14.1523 -14.1127 -13.9577 -13.7689 -13.7458
   -13.7157 -13.6759 -13.6618 -13.6054 -13.5744 -13.4921 -13.4240 -13.2997
   -13.2824 -13.2771 -13.2481 -13.2448 -13.2282 -13.1738 -13.1642 -13.1487
   -13.1223 -13.0949 -13.0754 -13.0599 -13.0390 -12.9903 -12.9252 -12.9101
   -12.8755 -12.7320 -12.7196 -12.6922 -12.5156 -12.3693 -12.1591 -12.0855
   -12.0435 -11.9870 -11.9704 -11.9588 -11.9356 -11.9176 -11.8545 -11.8370
   -11.8029 -11.7735 -11.6604 -11.5819 -11.5784  -3.1228  -2.8916  -2.6621
    -2.5134  -2.4523  -2.3107  -2.0022  -1.9872  -1.9695  -1.8807  -1.8634
    -1.7948  -1.7786  -1.7389  -1.6939  -1.5127  -1.2850  -1.2557  -1.1132
    -1.0982  -1.0507  -1.0298  -0.9844  -0.9681  -0.9165  -0.8888  -0.8129
    -0.8016  -0.7293  -0.5941  -0.5811  -0.5529  -0.4734  -0.4464  -0.4007
    -0.3713  -0.3087  -0.2588  -0.2080  -0.1841  -0.1147  -0.0416  -0.0013
     0.0268   0.0391   0.2956   0.3113   0.4856   0.5461   0.6110   0.6705
     0.7499   0.7601   0.7793   0.8438   0.8709   0.9043   0.9611   1.0910
     1.1510   1.1731   1.2036   1.2123   1.2700   1.3375   1.4522   1.4718
     1.5284   1.5346   1.5813   1.6023   1.6120   1.6658   1.7315   1.7363
     1.7750   1.8073   1.8479   1.9806   2.0664   2.1056   2.1309   2.2722
     2.2887   2.3284   2.3317   2.4484   2.4755   2.5001   2.5225   2.5361
     2.5923   2.6109   2.6218   2.6552   2.7289   2.7615   2.7687   2.7749
     2.8425   2.8506   2.8707   2.8779   2.8872   2.9004   2.9080   2.9218
     2.9287   2.9410   2.9472   2.9547   2.9737   2.9949   3.0004   3.0119
     3.0362   3.1520   3.2536   3.9350   4.2500   4.6072   4.8259   4.8659
     5.7646   5.8116   5.8328   5.8811   6.1321   6.1779   6.4319   6.4416
     6.9396   6.9850   7.0773   7.1572   7.4680   7.5359   7.5452   7.5580
     7.5888   7.8546   7.8787   7.9796   8.0299   8.1411   8.2670   8.6831
     8.8276   8.9293

     occupation numbers
     1.0000   1.0000   1.0000   1.0000   1.0000   1.0000   1.0000   1.0000
     1.0000   1.0000   1.0000   1.0000   1.0000   1.0000   1.0000   1.0000
     1.0000   1.0000   1.0000   1.0000   1.0000   1.0000   1.0000   1.0000
     1.0000   1.0000   1.0000   1.0000   1.0000   1.0000   1.0000   1.0000
     1.0000   1.0000   1.0000   1.0000   1.0000   1.0000   1.0000   1.0000
     1.0000   1.0000   1.0000   1.0000   1.0000   1.0000   1.0000   1.0000
     1.0000   1.0000   1.0000   1.0000   1.0000   1.0000   1.0000   1.0000
     1.0000   1.0000   1.0000   1.0000   1.0000   1.0000   1.0000   1.0000
     1.0000   1.0000   1.0000   1.0000   1.0000   1.0000   1.0000   1.0000
     1.0000   1.0000   1.0000   1.0000   1.0000   1.0000   1.0000   1.0000
     1.0000   1.0000   1.0000   1.0000   1.0000   1.0000   1.0000   1.0000
     1.0000   1.0000   1.0000   1.0000   1.0000   1.0000   1.0000   1.0000
     1.0000   1.0000   1.0000   1.0000   1.0000   1.0000   1.0000   1.0000
     1.0000   1.0000   1.0000   1.0000   1.0000   1.0000   1.0000   1.0000
     1.0000   1.0000   1.0000   1.0000   1.0000   1.0000   1.0000   1.0000
     1.0000   1.0000   1.0000   1.0000   1.0000   1.0000   1.0000   1.0000
     1.0000   1.0000   1.0000   1.0000   1.0000   1.0000   1.0000   1.0000
     1.0000   1.0000   1.0000   1.0000   1.0000   1.0000   1.0000   1.0000
     1.0000   1.0000   1.0000   1.0000   1.0000   1.0000   1.0000   1.0000
     1.0000   1.0000   1.0000   1.0000   1.0000   0.9999   0.9999   0.9999
     0.9998   0.9998   0.9998   0.9997   0.9996   0.9996   0.9994   0.9988
     0.9984   0.9983   0.9980   0.9979   0.9973   0.9963   0.9940   0.9935
     0.9917   0.9915   0.9898   0.9889   0.9885   0.9858   0.9819   0.9816
     0.9789   0.9763   0.9727   0.9578   0.9450   0.9382   0.9335   0.9019
     0.8976   0.8867   0.8858   0.8487   0.8391   0.8300   0.8215   0.8161
     0.7931   0.7851   0.7804   0.7654   0.7305   0.7143   0.7107   0.7075
     0.6721   0.6678   0.6568   0.6529   0.6478   0.6405   0.6363   0.6286
     0.6247   0.6177   0.6142   0.6099   0.5990   0.5868   0.5837   0.5770
     0.5628   0.4945   0.4346   0.1197   0.0501   0.0148   0.0062   0.0053
     0.0000   0.0000   0.0000   0.0000   0.0000   0.0000   0.0000   0.0000
     0.0000   0.0000   0.0000   0.0000   0.0000   0.0000   0.0000   0.0000
     0.0000   0.0000   0.0000   0.0000   0.0000   0.0000   0.0000   0.0000
     0.0000   0.0000

[...]

          k =-0.5000-0.5000 0.0000 ( 65132 PWs)   bands (ev):

[...]

          k = 0.2500 0.0000 0.0000 ( 65257 PWs)   bands (ev):

[...]

          k =-0.5000 0.2500 0.0000 ( 65138 PWs)   bands (ev):

   -92.8859 -92.8362 -92.7407 -92.6937 -92.6354 -92.5926 -92.5753 -92.4559
   -56.2395 -56.2223 -56.0973 -56.0864 -56.0808 -56.0733 -56.0395 -56.0094
   -55.9942 -55.9924 -55.9865 -55.9423 -55.9243 -55.8862 -55.8677 -55.8357
   -55.8292 -55.7820 -55.7805 -55.7774 -55.7691 -55.7307 -55.7053 -55.6208
   -31.4459 -31.4336 -31.2869 -31.2750 -31.2014 -31.0806 -30.9779 -30.7645
   -30.0284 -29.9896 -29.9609 -29.8538 -15.1619 -15.1138 -15.0363 -14.9350
   -14.8944 -14.7711 -14.6794 -14.5472 -14.2445 -14.2141 -14.2018 -14.1563
   -14.1328 -14.1092 -14.0735 -14.0570 -14.0390 -14.0004 -13.9875 -13.8788
   -13.8151 -13.7666 -13.7579 -13.7293 -13.6441 -13.6345 -13.5093 -13.4566
   -13.3723 -13.3377 -13.2413 -13.2043 -13.1920 -13.1863 -13.1525 -13.1198
   -13.1106 -13.0605 -12.9892 -12.9673 -12.9066 -12.8592 -12.8306 -12.7954
   -12.7882 -12.7130 -12.7097 -12.5192 -12.4943 -12.3998 -12.2986 -12.2683
   -11.9877 -11.9535 -11.9407 -11.9268 -11.9146 -11.8934 -11.8636 -11.7820
   -11.7735 -11.7507 -11.7138 -11.6867 -11.6777  -2.6198  -2.5784  -2.4311
    -2.3890  -2.2264  -2.1485  -2.0098  -1.8737  -1.8155  -1.7888  -1.7510
    -1.7139  -1.6323  -1.5167  -1.4590  -1.4364  -1.4096  -1.3304  -1.3054
    -1.2656  -1.2497  -1.1890  -1.1562  -1.1209  -1.0859  -1.0569  -0.9976
    -0.9701  -0.9289  -0.8924  -0.7873  -0.7625  -0.6633  -0.6105  -0.5762
    -0.5132  -0.4381  -0.4040  -0.3034  -0.2637  -0.2005  -0.1544  -0.1134
    -0.0585  -0.0269   0.0088   0.0517   0.0900   0.4192   0.4715   0.5394
     0.5705   0.8400   0.9071   0.9740   1.0036   1.1748   1.2093   1.2468
     1.2558   1.2742   1.2921   1.3618   1.4095   1.4504   1.4856   1.6001
     1.6426   1.6703   1.6846   1.7180   1.7430   1.7608   1.7740   1.7899
     1.8130   1.8579   1.8718   1.9104   1.9350   1.9678   2.0219   2.1459
     2.2394   2.2677   2.3334   2.3700   2.4347   2.4680   2.4752   2.5167
     2.5459   2.5686   2.5851   2.5972   2.6488   2.6656   2.7012   2.7122
     2.7186   2.7381   2.7603   2.7711   2.7879   2.8003   2.8234   2.8383
     2.8443   2.8539   2.8630   2.8779   3.4109   3.4447   3.5941   3.6121
     3.9104   3.9704   4.0275   4.2280   4.6077   4.7078   4.8846   4.9346
     5.2403   5.2638   5.4865   5.5809   5.6084   5.6518   6.3287   6.4591
     6.4851   6.6336   7.3894   7.5992   7.6707   7.7025   7.7325   7.7819
     7.8648   7.9507   8.1635   8.3287   8.4107   8.4232   8.5007   8.5600
     8.6914   8.7419

     occupation numbers
     1.0000   1.0000   1.0000   1.0000   1.0000   1.0000   1.0000   1.0000
     1.0000   1.0000   1.0000   1.0000   1.0000   1.0000   1.0000   1.0000
     1.0000   1.0000   1.0000   1.0000   1.0000   1.0000   1.0000   1.0000
     1.0000   1.0000   1.0000   1.0000   1.0000   1.0000   1.0000   1.0000
     1.0000   1.0000   1.0000   1.0000   1.0000   1.0000   1.0000   1.0000
     1.0000   1.0000   1.0000   1.0000   1.0000   1.0000   1.0000   1.0000
     1.0000   1.0000   1.0000   1.0000   1.0000   1.0000   1.0000   1.0000
     1.0000   1.0000   1.0000   1.0000   1.0000   1.0000   1.0000   1.0000
     1.0000   1.0000   1.0000   1.0000   1.0000   1.0000   1.0000   1.0000
     1.0000   1.0000   1.0000   1.0000   1.0000   1.0000   1.0000   1.0000
     1.0000   1.0000   1.0000   1.0000   1.0000   1.0000   1.0000   1.0000
     1.0000   1.0000   1.0000   1.0000   1.0000   1.0000   1.0000   1.0000
     1.0000   1.0000   1.0000   1.0000   1.0000   1.0000   1.0000   1.0000
     1.0000   1.0000   1.0000   1.0000   1.0000   1.0000   1.0000   1.0000
     1.0000   1.0000   1.0000   1.0000   1.0000   1.0000   1.0000   1.0000
     1.0000   1.0000   1.0000   1.0000   1.0000   1.0000   1.0000   1.0000
     1.0000   1.0000   1.0000   1.0000   1.0000   1.0000   1.0000   1.0000
     1.0000   1.0000   1.0000   1.0000   1.0000   1.0000   1.0000   1.0000
     1.0000   1.0000   1.0000   1.0000   1.0000   1.0000   1.0000   1.0000
     1.0000   1.0000   1.0000   1.0000   1.0000   1.0000   1.0000   0.9999
     0.9999   0.9997   0.9995   0.9994   0.9993   0.9983   0.9980   0.9976
     0.9975   0.9972   0.9970   0.9959   0.9950   0.9940   0.9931   0.9890
     0.9870   0.9856   0.9848   0.9828   0.9812   0.9799   0.9789   0.9777
     0.9758   0.9718   0.9704   0.9664   0.9635   0.9595   0.9520   0.9306
     0.9101   0.9031   0.8853   0.8744   0.8534   0.8418   0.8392   0.8237
     0.8122   0.8030   0.7962   0.7910   0.7684   0.7607   0.7440   0.7387
     0.7356   0.7260   0.7149   0.7095   0.7008   0.6944   0.6823   0.6744
     0.6712   0.6660   0.6610   0.6529   0.3452   0.3269   0.2514   0.2429
     0.1272   0.1095   0.0944   0.0535   0.0148   0.0101   0.0048   0.0039
     0.0009   0.0008   0.0003   0.0001   0.0001   0.0001   0.0000   0.0000
     0.0000   0.0000   0.0000   0.0000   0.0000   0.0000   0.0000   0.0000
     0.0000   0.0000   0.0000   0.0000   0.0000   0.0000   0.0000   0.0000
     0.0000   0.0000

     the Fermi energy is     3.1427 ev

!    total energy              =   -4440.30460675 Ry
     estimated scf accuracy    <          8.2E-09 Ry
     smearing contrib. (-TS)   =      -1.20815305 Ry
     internal energy E=F+TS    =   -4439.09645370 Ry

     The total energy is F=E-TS. E is the sum of the following terms:
     one-electron contribution =  -20889.37242415 Ry
     hartree contribution      =   10573.64332538 Ry
     xc contribution           =    -693.24612253 Ry
     ewald contribution        =    6846.06997875 Ry
     one-center paw contrib.   =    -276.19121116 Ry
      -> PAW hartree energy AE =      25.16087620 Ry
      -> PAW hartree energy PS =     -25.04477907 Ry
      -> PAW xc energy AE      =     -16.51724894 Ry
      -> PAW xc energy PS      =       6.87668404 Ry
      -> total E_H with PAW    =   10573.75942252 Ry
      -> total E_XC with PAW   =    -702.88668744 Ry

     convergence has been achieved in  49 iterations

     Writing all to output data dir /bsuhome/zayahcortright/scratch/pwscf.save/

     General routines

     Parallel routines

     PAW routines

   This run was terminated on:  14:54: 9  21Jun2024

   JOB DONE.