     Program PWSCF v.7.2 starts on 21Jun2024 at 23:21: 3

     Reading input from espresso.pwi
Warning: card &CELL ignored
Warning: card / ignored
Warning: card &FCP ignored
Warning: card / ignored
Warning: card &RISM ignored
Warning: card / ignored

     Current dimensions of program PWSCF are:
     Max number of different atomic species (ntypx) = 10
     Max number of k-points (npk) =  40000
     Max angular momentum in pseudopotentials (lmaxx) =  4
     file O.pbe-n-kjpaw_psl.0.1.UPF: wavefunction(s)  2P renormalized
     signal trapping enabled: kill the code with -SIGUSR1 to stop cleanly the simulation

     K-points division:     npool     =       2
     R & G space division:  proc/nbgrp/npool/nimage =      24
     Subspace diagonalization in iterative solution of the eigenvalue problem:
     one sub-group per band group will be used

     Using Slab Decomposition

     bravais-lattice index     =            0
     lattice parameter (alat)  =      14.8599  a.u.
     unit-cell volume          =    8305.1283 (a.u.)^3
     number of atoms/cell      =           49
     number of atomic types    =            3
     number of electrons       =       430.00
     number of Kohn-Sham states=          258
     kinetic-energy cutoff     =      60.0000  Ry
     charge density cutoff     =     480.0000  Ry
     scf convergence threshold =      1.0E-08
     mixing beta               =       0.1500
     number of iterations used =            8  local-TF  mixing
     Exchange-correlation= SLA  PW   PBE  PBE
                           (   1   4   3   4   0   0   0)

     celldm(1)=  14.859904  celldm(2)=   0.000000  celldm(3)=   0.000000
     celldm(4)=   0.000000  celldm(5)=   0.000000  celldm(6)=   0.000000

     crystal axes: (cart. coord. in units of alat)
               a(1) = (   1.000000   0.000000   0.000000 )
               a(2) = (   0.000000   1.000000   0.000000 )
               a(3) = (   0.000000   0.000000   2.531036 )

     reciprocal axes: (cart. coord. in units 2 pi/alat)
               b(1) = (  1.000000  0.000000  0.000000 )
               b(2) = (  0.000000  1.000000  0.000000 )
               b(3) = (  0.000000  0.000000  0.395095 )

     PseudoPot. # 1 for Sr read from file:
     /bsuhome/zayahcortright/q-e/pseudo/Sr_pbe_v1.uspp.F.UPF
     MD5 check sum: 6b418c05fbe9db5448babca5e47b7a5b
     Pseudo is Ultrasoft + core correction, Zval = 10.0
     Generated by new atomic code, or converted to UPF format
     Using radial grid of  883 points,  6 beta functions with:
                l(1) =   0
                l(2) =   0
                l(3) =   1
                l(4) =   1
                l(5) =   2
                l(6) =   2
     Q(r) pseudized with  6 coefficients,  rinner =    1.400   1.400   1.400
                                                       1.400   1.400

     PseudoPot. # 2 for O  read from file:
     /bsuhome/zayahcortright/q-e/pseudo/O.pbe-n-kjpaw_psl.0.1.UPF
     MD5 check sum: 0234752ac141de4415c5fc33072bef88
     Pseudo is Projector augmented-wave + core cor, Zval =  6.0
     Generated using "atomic" code by A. Dal Corso  v.5.0.99 svn rev. 10869
     Shape of augmentation charge: BESSEL
     Using radial grid of 1095 points,  4 beta functions with:
                l(1) =   0
                l(2) =   0
                l(3) =   1
                l(4) =   1
     Q(r) pseudized with 0 coefficients

     PseudoPot. # 3 for Co read from file:
     /bsuhome/zayahcortright/q-e/pseudo/Co_pbe_v1.2.uspp.F.UPF
     MD5 check sum: 5f91765df6ddd3222702df6e7b74a16d
     Pseudo is Ultrasoft + core correction, Zval = 17.0
     Generated by new atomic code, or converted to UPF format
     Using radial grid of  863 points,  6 beta functions with:
                l(1) =   0
                l(2) =   0
                l(3) =   1
                l(4) =   1
                l(5) =   2
                l(6) =   2
     Q(r) pseudized with  8 coefficients,  rinner =    1.200   1.200   1.200
                                                       1.200   1.200

     atomic species   valence    mass     pseudopotential
        Sr            10.00    87.62000     Sr( 1.00)
        O              6.00    15.99900     O ( 1.00)
        Co            17.00    58.93319     Co( 1.00)

     No symmetry found

                                    s                        frac. trans.

      isym =  1     identity

 cryst.   s( 1) = (     1          0          0      )
                  (     0          1          0      )
                  (     0          0          1      )

 cart.    s( 1) = (  1.0000000  0.0000000  0.0000000 )
                  (  0.0000000  1.0000000  0.0000000 )
                  (  0.0000000  0.0000000  1.0000000 )

   Cartesian axes

     site n.     atom                  positions (alat units)
         1           Sr  tau(   1) = (   0.2508693   0.7491307   1.7574407  )
         2           O   tau(   2) = (   0.4985141   0.5014859   1.7715967  )
         3           Sr  tau(   3) = (   0.7482398   0.7454518   1.7648669  )
         4           Sr  tau(   4) = (   0.7441748   0.2558252   1.7667843  )
         5           Sr  tau(   5) = (   0.2508693   0.7491307   1.2696799  )
         6           Sr  tau(   6) = (   0.2508693   0.7491307   0.7632319  )
         7           Co  tau(   7) = (   0.4998914   0.5001086   1.0164559  )
         8           Co  tau(   8) = (   0.4936915   0.5063085   1.5135603  )
         9           O   tau(   9) = (   0.4988895   0.7610401   1.0164559  )
        10           O   tau(  10) = (   0.2389599   0.5011105   1.0164559  )
        11           O   tau(  11) = (   0.0070918   0.7374880   1.0164559  )
        12           O   tau(  12) = (   0.0088340   0.7405089   1.5135603  )
        13           O   tau(  13) = (   0.5066944   0.7415376   1.5135603  )
        14           O   tau(  14) = (   0.2584624   0.4933056   1.5135603  )
        15           O   tau(  15) = (   0.4985141   0.5014859   0.7773880  )
        16           O   tau(  16) = (   0.4985141   0.5014859   1.2555238  )
        17           Sr  tau(  17) = (   0.7482398   0.7454518   0.7706582  )
        18           Sr  tau(  18) = (   0.7482398   0.7454518   1.2622536  )
        19           Sr  tau(  19) = (   0.7441748   0.2558252   0.7725755  )
        20           Sr  tau(  20) = (   0.7441748   0.2558252   1.2603363  )
        21           O   tau(  21) = (   0.7322655   0.0078049   1.5135603  )
        22           O   tau(  22) = (   0.7558175   0.4996027   1.5135603  )
        23           O   tau(  23) = (   0.5003973   0.2441825   1.5135603  )
        24           O   tau(  24) = (   0.7527966   0.4978604   1.0164559  )
        25           O   tau(  25) = (   0.5021396   0.2472034   1.0164559  )
        26           O   tau(  26) = (   0.7517679   0.0000000   1.0164559  )
        27           O   tau(  27) = (   0.0114961   0.4948124   1.7455321  )
        28           O   tau(  28) = (   0.0048226   0.0077944   1.7715967  )
        29           Sr  tau(  29) = (   0.2545482   0.2517602   1.7648669  )
        30           O   tau(  30) = (   0.5048017   0.0015068   1.7786929  )
        31           Co  tau(  31) = (   0.0056869   0.5006215   1.0164559  )
        32           Co  tau(  32) = (   0.0065315   0.4997770   1.5135603  )
        33           Co  tau(  33) = (   0.0061999   0.0064171   1.0164559  )
        34           Co  tau(  34) = (   0.0000000   0.0126169   1.5135603  )
        35           O   tau(  35) = (   0.0114961   0.4948124   1.2815885  )
        36           O   tau(  36) = (   0.0114961   0.4948124   0.7513233  )
        37           O   tau(  37) = (   0.0051979   0.2673486   1.0164559  )
        38           O   tau(  38) = (   0.0130029   0.2478461   1.5135603  )
        39           O   tau(  39) = (   0.0048226   0.0077944   0.7773880  )
        40           O   tau(  40) = (   0.0048226   0.0077944   1.2555238  )
        41           Sr  tau(  41) = (   0.2545482   0.2517602   0.7706582  )
        42           Sr  tau(  42) = (   0.2545482   0.2517602   1.2622536  )
        43           Co  tau(  43) = (   0.4989925   0.0073160   1.5135603  )
        44           Co  tau(  44) = (   0.4998370   0.0064714   1.0164559  )
        45           O   tau(  45) = (   0.5048017   0.0015068   0.7844841  )
        46           O   tau(  46) = (   0.5048017   0.0015068   1.2484277  )
        47           O   tau(  47) = (   0.2621260   0.0059111   1.5135603  )
        48           O   tau(  48) = (   0.2591051   0.0041689   1.0164559  )
        49           O   tau(  49) = (   0.7108228   0.4264937   2.1602013  )

   Crystallographic axes

     site n.     atom                  positions (cryst. coord.)
         1           Sr  tau(   1) = (  0.2508693  0.7491307  0.6943562  )
         2           O   tau(   2) = (  0.4985141  0.5014859  0.6999492  )
         3           Sr  tau(   3) = (  0.7482398  0.7454518  0.6972903  )
         4           Sr  tau(   4) = (  0.7441748  0.2558252  0.6980478  )
         5           Sr  tau(   5) = (  0.2508693  0.7491307  0.5016443  )
         6           Sr  tau(   6) = (  0.2508693  0.7491307  0.3015492  )
         7           Co  tau(   7) = (  0.4998914  0.5001086  0.4015968  )
         8           Co  tau(   8) = (  0.4936915  0.5063085  0.5980003  )
         9           O   tau(   9) = (  0.4988895  0.7610401  0.4015968  )
        10           O   tau(  10) = (  0.2389599  0.5011105  0.4015968  )
        11           O   tau(  11) = (  0.0070918  0.7374880  0.4015968  )
        12           O   tau(  12) = (  0.0088340  0.7405089  0.5980003  )
        13           O   tau(  13) = (  0.5066944  0.7415376  0.5980003  )
        14           O   tau(  14) = (  0.2584624  0.4933056  0.5980003  )
        15           O   tau(  15) = (  0.4985141  0.5014859  0.3071422  )
        16           O   tau(  16) = (  0.4985141  0.5014859  0.4960513  )
        17           Sr  tau(  17) = (  0.7482398  0.7454518  0.3044833  )
        18           Sr  tau(  18) = (  0.7482398  0.7454518  0.4987103  )
        19           Sr  tau(  19) = (  0.7441748  0.2558252  0.3052408  )
        20           Sr  tau(  20) = (  0.7441748  0.2558252  0.4979527  )
        21           O   tau(  21) = (  0.7322655  0.0078049  0.5980003  )
        22           O   tau(  22) = (  0.7558175  0.4996027  0.5980003  )
        23           O   tau(  23) = (  0.5003973  0.2441825  0.5980003  )
        24           O   tau(  24) = (  0.7527966  0.4978604  0.4015968  )
        25           O   tau(  25) = (  0.5021396  0.2472034  0.4015968  )
        26           O   tau(  26) = (  0.7517679  0.0000000  0.4015968  )
        27           O   tau(  27) = (  0.0114961  0.4948124  0.6896512  )
        28           O   tau(  28) = (  0.0048226  0.0077944  0.6999492  )
        29           Sr  tau(  29) = (  0.2545482  0.2517602  0.6972903  )
        30           O   tau(  30) = (  0.5048017  0.0015068  0.7027529  )
        31           Co  tau(  31) = (  0.0056869  0.5006215  0.4015968  )
        32           Co  tau(  32) = (  0.0065315  0.4997770  0.5980003  )
        33           Co  tau(  33) = (  0.0061999  0.0064171  0.4015968  )
        34           Co  tau(  34) = (  0.0000000  0.0126169  0.5980003  )
        35           O   tau(  35) = (  0.0114961  0.4948124  0.5063494  )
        36           O   tau(  36) = (  0.0114961  0.4948124  0.2968442  )
        37           O   tau(  37) = (  0.0051979  0.2673486  0.4015968  )
        38           O   tau(  38) = (  0.0130029  0.2478461  0.5980003  )
        39           O   tau(  39) = (  0.0048226  0.0077944  0.3071422  )
        40           O   tau(  40) = (  0.0048226  0.0077944  0.4960513  )
        41           Sr  tau(  41) = (  0.2545482  0.2517602  0.3044833  )
        42           Sr  tau(  42) = (  0.2545482  0.2517602  0.4987103  )
        43           Co  tau(  43) = (  0.4989925  0.0073160  0.5980003  )
        44           Co  tau(  44) = (  0.4998370  0.0064714  0.4015968  )
        45           O   tau(  45) = (  0.5048017  0.0015068  0.3099459  )
        46           O   tau(  46) = (  0.5048017  0.0015068  0.4932477  )
        47           O   tau(  47) = (  0.2621260  0.0059111  0.5980003  )
        48           O   tau(  48) = (  0.2591051  0.0041689  0.4015968  )
        49           O   tau(  49) = (  0.7108228  0.4264937  0.8534850  )

     number of k points=    10  Gaussian smearing, width (Ry)=  0.0700
                       cart. coord. in units 2pi/alat
        k(    1) = (   0.0000000   0.0000000   0.0000000), wk =   0.1250000
        k(    2) = (   0.0000000   0.2500000   0.0000000), wk =   0.2500000
        k(    3) = (   0.0000000  -0.5000000   0.0000000), wk =   0.1250000
        k(    4) = (   0.2500000   0.2500000   0.0000000), wk =   0.2500000
        k(    5) = (   0.2500000  -0.5000000   0.0000000), wk =   0.2500000
        k(    6) = (  -0.5000000  -0.5000000   0.0000000), wk =   0.1250000
        k(    7) = (   0.2500000   0.0000000   0.0000000), wk =   0.2500000
        k(    8) = (  -0.5000000   0.0000000   0.0000000), wk =   0.1250000
        k(    9) = (  -0.2500000   0.2500000   0.0000000), wk =   0.2500000
        k(   10) = (  -0.5000000   0.2500000   0.0000000), wk =   0.2500000

                       cryst. coord.
        k(    1) = (   0.0000000   0.0000000   0.0000000), wk =   0.1250000
        k(    2) = (   0.0000000   0.2500000   0.0000000), wk =   0.2500000
        k(    3) = (   0.0000000  -0.5000000   0.0000000), wk =   0.1250000
        k(    4) = (   0.2500000   0.2500000   0.0000000), wk =   0.2500000
        k(    5) = (   0.2500000  -0.5000000   0.0000000), wk =   0.2500000
        k(    6) = (  -0.5000000  -0.5000000   0.0000000), wk =   0.1250000
        k(    7) = (   0.2500000   0.0000000   0.0000000), wk =   0.2500000
        k(    8) = (  -0.5000000   0.0000000   0.0000000), wk =   0.1250000
        k(    9) = (  -0.2500000   0.2500000   0.0000000), wk =   0.2500000
        k(   10) = (  -0.5000000   0.2500000   0.0000000), wk =   0.2500000

     Check: negative core charge=   -0.000004

     Initial potential from superposition of free atoms

     starting charge     421.5961, renormalised to     430.0000

     negative rho (up, down):  7.826E-01 0.000E+00
     Starting wfcs are  376 randomized atomic wfcs
     Checking if some PAW data can be deallocated...

     Self-consistent Calculation

     iteration #  1     ecut=    60.00 Ry     beta= 0.15
     Davidson diagonalization with overlap

     ethr =  1.00E-02,  avg # of iterations =  2.0

     negative rho (up, down):  7.718E-01 0.000E+00

     total energy              =   -4445.26971049 Ry
     estimated scf accuracy    <      53.94033426 Ry

[...]

     total energy              =   -4440.31145545 Ry
     estimated scf accuracy    <       0.00000002 Ry

     iteration # 53     ecut=    60.00 Ry     beta= 0.15
     Davidson diagonalization with overlap

     ethr =  3.72E-12,  avg # of iterations =  2.7

     negative rho (up, down):  7.926E-01 0.000E+00

     End of self-consistent calculation

          k = 0.0000 0.0000 0.0000 ( 65197 PWs)   bands (ev):

   -92.8960 -92.8471 -92.7503 -92.7047 -92.6456 -92.6032 -92.5849 -92.4639
   -56.2496 -56.2341 -56.1071 -56.0964 -56.0909 -56.0833 -56.0489 -56.0191
   -56.0038 -56.0033 -55.9983 -55.9522 -55.9357 -55.8966 -55.8772 -55.8445
   -55.8401 -55.7903 -55.7902 -55.7878 -55.7794 -55.7388 -55.7150 -55.6294
   -31.4587 -31.4394 -31.2966 -31.2108 -31.1552 -31.0987 -30.9552 -30.8402
   -30.0396 -29.9978 -29.9705 -29.8630 -15.2721 -15.2251 -15.1451 -15.0158
   -14.8145 -14.6941 -14.4069 -14.3856 -14.3588 -14.3098 -14.2613 -14.2467
   -14.2425 -14.2196 -14.2036 -14.1431 -14.1210 -13.9657 -13.7799 -13.7527
   -13.7239 -13.6852 -13.6734 -13.6110 -13.5745 -13.5013 -13.4337 -13.2938
   -13.2845 -13.2799 -13.2567 -13.2382 -13.1840 -13.1777 -13.1587 -13.1567
   -13.1307 -13.1039 -13.0813 -12.9978 -12.9842 -12.9744 -12.9132 -12.9012
   -12.8936 -12.7663 -12.7498 -12.7466 -12.5251 -12.3792 -12.1731 -12.0962
   -12.0530 -11.9924 -11.9794 -11.9680 -11.9453 -11.9277 -11.8643 -11.8465
   -11.8124 -11.7821 -11.6709 -11.5919 -11.5883  -3.1326  -2.9015  -2.6716
    -2.5239  -2.4620  -2.3207  -2.0124  -1.9976  -1.9796  -1.8926  -1.8733
    -1.8049  -1.7881  -1.7471  -1.7057  -1.5223  -1.2966  -1.2645  -1.1229
    -1.1078  -1.0604  -1.0382  -0.9927  -0.9771  -0.9264  -0.8980  -0.8196
    -0.8114  -0.7386  -0.6029  -0.5900  -0.5619  -0.4823  -0.4500  -0.4282
    -0.3861  -0.3183  -0.2538  -0.2171  -0.1900  -0.1101  -0.0568  -0.0099
     0.0129   0.0283   0.2871   0.3033   0.4772   0.5376   0.6060   0.6550
     0.7404   0.7506   0.7671   0.8360   0.8621   0.8955   0.9530   1.0818
     1.1431   1.1646   1.1897   1.2070   1.2642   1.3278   1.4467   1.4615
     1.5254   1.5287   1.5764   1.5916   1.6038   1.6607   1.7247   1.7293
     1.7733   1.7970   1.8400   1.9715   2.0655   2.1005   2.1159   2.2673
     2.2800   2.3186   2.3312   2.4292   2.4676   2.4898   2.5103   2.5288
     2.5487   2.6030   2.6148   2.6390   2.7178   2.7523   2.7611   2.7647
     2.8324   2.8403   2.8618   2.8678   2.8780   2.8906   2.8980   2.9130
     2.9196   2.9307   2.9367   2.9465   2.9640   2.9857   2.9900   3.0026
     3.0329   3.1441   3.2404   3.9271   4.2449   4.5965   4.8219   4.8635
     5.7616   5.8033   5.8190   5.8990   6.1230   6.1680   6.4274   6.4355
     6.9322   6.9854   7.0825   7.1498   7.4761   7.5322   7.5456   7.5797
     7.6973   7.8748   7.9113   8.0228   8.0292   8.1602   8.3504   8.5005
     8.7672   8.9207

     occupation numbers
     1.0000   1.0000   1.0000   1.0000   1.0000   1.0000   1.0000   1.0000
     1.0000   1.0000   1.0000   1.0000   1.0000   1.0000   1.0000   1.0000
     1.0000   1.0000   1.0000   1.0000   1.0000   1.0000   1.0000   1.0000
     1.0000   1.0000   1.0000   1.0000   1.0000   1.0000   1.0000   1.0000
     1.0000   1.0000   1.0000   1.0000   1.0000   1.0000   1.0000   1.0000
     1.0000   1.0000   1.0000   1.0000   1.0000   1.0000   1.0000   1.0000
     1.0000   1.0000   1.0000   1.0000   1.0000   1.0000   1.0000   1.0000
     1.0000   1.0000   1.0000   1.0000   1.0000   1.0000   1.0000   1.0000
     1.0000   1.0000   1.0000   1.0000   1.0000   1.0000   1.0000   1.0000
     1.0000   1.0000   1.0000   1.0000   1.0000   1.0000   1.0000   1.0000
     1.0000   1.0000   1.0000   1.0000   1.0000   1.0000   1.0000   1.0000
     1.0000   1.0000   1.0000   1.0000   1.0000   1.0000   1.0000   1.0000
     1.0000   1.0000   1.0000   1.0000   1.0000   1.0000   1.0000   1.0000
     1.0000   1.0000   1.0000   1.0000   1.0000   1.0000   1.0000   1.0000
     1.0000   1.0000   1.0000   1.0000   1.0000   1.0000   1.0000   1.0000
     1.0000   1.0000   1.0000   1.0000   1.0000   1.0000   1.0000   1.0000
     1.0000   1.0000   1.0000   1.0000   1.0000   1.0000   1.0000   1.0000
     1.0000   1.0000   1.0000   1.0000   1.0000   1.0000   1.0000   1.0000
     1.0000   1.0000   1.0000   1.0000   1.0000   1.0000   1.0000   1.0000
     1.0000   1.0000   1.0000   1.0000   1.0000   0.9999   0.9999   0.9999
     0.9998   0.9998   0.9998   0.9997   0.9996   0.9996   0.9994   0.9988
     0.9984   0.9983   0.9980   0.9979   0.9972   0.9963   0.9939   0.9935
     0.9915   0.9914   0.9896   0.9889   0.9884   0.9856   0.9817   0.9814
     0.9782   0.9763   0.9725   0.9577   0.9435   0.9373   0.9345   0.9006
     0.8973   0.8867   0.8830   0.8519   0.8383   0.8301   0.8223   0.8151
     0.8071   0.7842   0.7791   0.7682   0.7311   0.7139   0.7094   0.7076
     0.6722   0.6680   0.6563   0.6530   0.6474   0.6404   0.6363   0.6279
     0.6242   0.6179   0.6145   0.6089   0.5989   0.5864   0.5839   0.5766
     0.5589   0.4933   0.4365   0.1191   0.0493   0.0149   0.0061   0.0051
     0.0000   0.0000   0.0000   0.0000   0.0000   0.0000   0.0000   0.0000
     0.0000   0.0000   0.0000   0.0000   0.0000   0.0000   0.0000   0.0000
     0.0000   0.0000   0.0000   0.0000   0.0000   0.0000   0.0000   0.0000
     0.0000   0.0000

[...]

          k =-0.5000-0.5000 0.0000 ( 65132 PWs)   bands (ev):

[...]

          k = 0.2500 0.0000 0.0000 ( 65257 PWs)   bands (ev):

[...]

          k =-0.5000 0.2500 0.0000 ( 65138 PWs)   bands (ev):

   -92.8960 -92.8471 -92.7503 -92.7047 -92.6456 -92.6032 -92.5849 -92.4639
   -56.2496 -56.2341 -56.1071 -56.0964 -56.0909 -56.0833 -56.0489 -56.0191
   -56.0038 -56.0033 -55.9983 -55.9522 -55.9357 -55.8966 -55.8772 -55.8445
   -55.8401 -55.7903 -55.7902 -55.7878 -55.7794 -55.7388 -55.7150 -55.6294
   -31.4546 -31.4433 -31.2961 -31.2117 -31.1540 -31.0996 -30.9549 -30.8408
   -30.0369 -29.9996 -29.9703 -29.8642 -15.1723 -15.1265 -15.0481 -14.9418
   -14.9022 -14.7810 -14.6909 -14.5500 -14.2536 -14.2229 -14.2101 -14.1664
   -14.1406 -14.1191 -14.0836 -14.0606 -14.0474 -14.0094 -13.9834 -13.8811
   -13.8245 -13.7756 -13.7680 -13.7459 -13.6532 -13.5955 -13.5144 -13.4552
   -13.3820 -13.3458 -13.2474 -13.2087 -13.1978 -13.1674 -13.1329 -13.1211
   -13.0784 -13.0683 -12.9559 -12.9126 -12.8920 -12.8811 -12.8536 -12.8053
   -12.7970 -12.7487 -12.7208 -12.5362 -12.5044 -12.3846 -12.3230 -12.3016
   -11.9929 -11.9624 -11.9502 -11.9362 -11.9234 -11.9032 -11.8730 -11.7907
   -11.7836 -11.7592 -11.7247 -11.6971 -11.6879  -2.6294  -2.5882  -2.4414
    -2.3984  -2.2361  -2.1601  -2.0206  -1.8832  -1.8267  -1.7998  -1.7618
    -1.7237  -1.6423  -1.5261  -1.4690  -1.4455  -1.4194  -1.3423  -1.3143
    -1.2745  -1.2588  -1.1987  -1.1652  -1.1301  -1.0954  -1.0662  -1.0072
    -0.9783  -0.9359  -0.9011  -0.7974  -0.7692  -0.6752  -0.6190  -0.5884
    -0.5275  -0.4483  -0.4096  -0.3139  -0.2617  -0.2122  -0.1521  -0.1281
    -0.0627  -0.0397  -0.0073   0.0407   0.0833   0.4068   0.4888   0.5275
     0.5406   0.8375   0.8936   0.9681   0.9916   1.1645   1.1996   1.2375
     1.2456   1.2644   1.2828   1.3520   1.4009   1.4450   1.4721   1.6083
     1.6435   1.6613   1.6718   1.7150   1.7396   1.7551   1.7646   1.7835
     1.8103   1.8505   1.8630   1.9001   1.9253   1.9592   2.0090   2.1337
     2.2326   2.2631   2.3292   2.3599   2.4226   2.4547   2.4641   2.5073
     2.5322   2.5422   2.5657   2.5975   2.6403   2.6497   2.6918   2.7018
     2.7118   2.7308   2.7489   2.7612   2.7769   2.7936   2.8144   2.8251
     2.8348   2.8419   2.8518   2.8645   3.3949   3.4499   3.5817   3.6038
     3.8810   3.9740   4.0260   4.2238   4.5982   4.7077   4.8662   4.9308
     5.2266   5.2557   5.4847   5.5659   5.6052   5.6356   6.3288   6.4281
     6.4493   6.8501   7.2753   7.5943   7.6625   7.7202   7.7738   7.8020
     7.8966   7.9762   8.2814   8.3338   8.4054   8.4185   8.4915   8.5536
     8.6542   8.6921

     occupation numbers
     1.0000   1.0000   1.0000   1.0000   1.0000   1.0000   1.0000   1.0000
     1.0000   1.0000   1.0000   1.0000   1.0000   1.0000   1.0000   1.0000
     1.0000   1.0000   1.0000   1.0000   1.0000   1.0000   1.0000   1.0000
     1.0000   1.0000   1.0000   1.0000   1.0000   1.0000   1.0000   1.0000
     1.0000   1.0000   1.0000   1.0000   1.0000   1.0000   1.0000   1.0000
     1.0000   1.0000   1.0000   1.0000   1.0000   1.0000   1.0000   1.0000
     1.0000   1.0000   1.0000   1.0000   1.0000   1.0000   1.0000   1.0000
     1.0000   1.0000   1.0000   1.0000   1.0000   1.0000   1.0000   1.0000
     1.0000   1.0000   1.0000   1.0000   1.0000   1.0000   1.0000   1.0000
     1.0000   1.0000   1.0000   1.0000   1.0000   1.0000   1.0000   1.0000
     1.0000   1.0000   1.0000   1.0000   1.0000   1.0000   1.0000   1.0000
     1.0000   1.0000   1.0000   1.0000   1.0000   1.0000   1.0000   1.0000
     1.0000   1.0000   1.0000   1.0000   1.0000   1.0000   1.0000   1.0000
     1.0000   1.0000   1.0000   1.0000   1.0000   1.0000   1.0000   1.0000
     1.0000   1.0000   1.0000   1.0000   1.0000   1.0000   1.0000   1.0000
     1.0000   1.0000   1.0000   1.0000   1.0000   1.0000   1.0000   1.0000
     1.0000   1.0000   1.0000   1.0000   1.0000   1.0000   1.0000   1.0000
     1.0000   1.0000   1.0000   1.0000   1.0000   1.0000   1.0000   1.0000
     1.0000   1.0000   1.0000   1.0000   1.0000   1.0000   1.0000   1.0000
     1.0000   1.0000   1.0000   1.0000   1.0000   1.0000   1.0000   0.9999
     0.9999   0.9997   0.9996   0.9993   0.9993   0.9983   0.9980   0.9976
     0.9975   0.9972   0.9970   0.9959   0.9949   0.9939   0.9932   0.9882
     0.9865   0.9856   0.9850   0.9824   0.9807   0.9796   0.9789   0.9774
     0.9752   0.9715   0.9703   0.9664   0.9635   0.9593   0.9524   0.9310
     0.9093   0.9017   0.8836   0.8744   0.8542   0.8430   0.8396   0.8235
     0.8137   0.8097   0.8001   0.7866   0.7677   0.7634   0.7437   0.7389
     0.7340   0.7247   0.7156   0.7094   0.7014   0.6927   0.6818   0.6761
     0.6709   0.6671   0.6617   0.6548   0.3485   0.3188   0.2525   0.2421
     0.1333   0.1058   0.0924   0.0526   0.0148   0.0097   0.0050   0.0038
     0.0009   0.0008   0.0002   0.0002   0.0001   0.0001   0.0000   0.0000
     0.0000   0.0000   0.0000   0.0000   0.0000   0.0000   0.0000   0.0000
     0.0000   0.0000   0.0000   0.0000   0.0000   0.0000   0.0000   0.0000
     0.0000   0.0000

     the Fermi energy is     3.1327 ev

!    total energy              =   -4440.31145546 Ry
     estimated scf accuracy    <          5.9E-09 Ry
     smearing contrib. (-TS)   =      -1.20776469 Ry
     internal energy E=F+TS    =   -4439.10369076 Ry

     The total energy is F=E-TS. E is the sum of the following terms:
     one-electron contribution =  -20889.68285976 Ry
     hartree contribution      =   10573.68415995 Ry
     xc contribution           =    -693.24970537 Ry
     ewald contribution        =    6846.33567174 Ry
     one-center paw contrib.   =    -276.19095733 Ry
      -> PAW hartree energy AE =      25.07673378 Ry
      -> PAW hartree energy PS =     -24.96158759 Ry
      -> PAW xc energy AE      =     -16.50512141 Ry
      -> PAW xc energy PS      =       6.86403219 Ry
      -> total E_H with PAW    =   10573.79930614 Ry
      -> total E_XC with PAW   =    -702.89079458 Ry

     convergence has been achieved in  53 iterations

     Writing all to output data dir /bsuhome/zayahcortright/scratch/pwscf.save/

     General routines

     Parallel routines

     PAW routines

   This run was terminated on:  23:34:18  21Jun2024

   JOB DONE.