     Program PWSCF v.7.2 starts on 21Jun2024 at 17:37: 4

     Reading input from espresso.pwi
Warning: card &CELL ignored
Warning: card / ignored
Warning: card &FCP ignored
Warning: card / ignored
Warning: card &RISM ignored
Warning: card / ignored

     Current dimensions of program PWSCF are:
     Max number of different atomic species (ntypx) = 10
     Max number of k-points (npk) =  40000
     Max angular momentum in pseudopotentials (lmaxx) =  4
     file O.pbe-n-kjpaw_psl.0.1.UPF: wavefunction(s)  2P renormalized
     signal trapping enabled: kill the code with -SIGUSR1 to stop cleanly the simulation

     K-points division:     npool     =       2
     R & G space division:  proc/nbgrp/npool/nimage =      24
     Subspace diagonalization in iterative solution of the eigenvalue problem:
     one sub-group per band group will be used

     Using Slab Decomposition

     bravais-lattice index     =            0
     lattice parameter (alat)  =      14.8599  a.u.
     unit-cell volume          =    8305.1283 (a.u.)^3
     number of atoms/cell      =           49
     number of atomic types    =            4
     number of electrons       =       425.00
     number of Kohn-Sham states=          256
     kinetic-energy cutoff     =      60.0000  Ry
     charge density cutoff     =     480.0000  Ry
     scf convergence threshold =      1.0E-08
     mixing beta               =       0.1500
     number of iterations used =            8  local-TF  mixing
     Exchange-correlation= PBE
                           (   1   4   3   4   0   0   0)

     celldm(1)=  14.859904  celldm(2)=   0.000000  celldm(3)=   0.000000
     celldm(4)=   0.000000  celldm(5)=   0.000000  celldm(6)=   0.000000

     crystal axes: (cart. coord. in units of alat)
               a(1) = (   1.000000   0.000000   0.000000 )
               a(2) = (   0.000000   1.000000   0.000000 )
               a(3) = (   0.000000   0.000000   2.531036 )

     reciprocal axes: (cart. coord. in units 2 pi/alat)
               b(1) = (  1.000000  0.000000  0.000000 )
               b(2) = (  0.000000  1.000000  0.000000 )
               b(3) = (  0.000000  0.000000  0.395095 )

     PseudoPot. # 1 for Sr read from file:
     /bsuhome/zayahcortright/q-e/pseudo/Sr_pbe_v1.uspp.F.UPF
     MD5 check sum: 6b418c05fbe9db5448babca5e47b7a5b
     Pseudo is Ultrasoft + core correction, Zval = 10.0
     Generated by new atomic code, or converted to UPF format
     Using radial grid of  883 points,  6 beta functions with:
                l(1) =   0
                l(2) =   0
                l(3) =   1
                l(4) =   1
                l(5) =   2
                l(6) =   2
     Q(r) pseudized with  6 coefficients,  rinner =    1.400   1.400   1.400
                                                       1.400   1.400

     PseudoPot. # 2 for O  read from file:
     /bsuhome/zayahcortright/q-e/pseudo/O.pbe-n-kjpaw_psl.0.1.UPF
     MD5 check sum: 0234752ac141de4415c5fc33072bef88
     Pseudo is Projector augmented-wave + core cor, Zval =  6.0
     Generated using "atomic" code by A. Dal Corso  v.5.0.99 svn rev. 10869
     Shape of augmentation charge: BESSEL
     Using radial grid of 1095 points,  4 beta functions with:
                l(1) =   0
                l(2) =   0
                l(3) =   1
                l(4) =   1
     Q(r) pseudized with 0 coefficients

     PseudoPot. # 3 for Co read from file:
     /bsuhome/zayahcortright/q-e/pseudo/Co_pbe_v1.2.uspp.F.UPF
     MD5 check sum: 5f91765df6ddd3222702df6e7b74a16d
     Pseudo is Ultrasoft + core correction, Zval = 17.0
     Generated by new atomic code, or converted to UPF format
     Using radial grid of  863 points,  6 beta functions with:
                l(1) =   0
                l(2) =   0
                l(3) =   1
                l(4) =   1
                l(5) =   2
                l(6) =   2
     Q(r) pseudized with  8 coefficients,  rinner =    1.200   1.200   1.200
                                                       1.200   1.200

     PseudoPot. # 4 for H  read from file:
     /bsuhome/zayahcortright/q-e/pseudo/H.pbe-rrkjus_psl.1.0.0.UPF
     MD5 check sum: f52b6d4d1c606e5624b1dc7b2218f220
     Pseudo is Ultrasoft, Zval =  1.0
     Generated using "atomic" code by A. Dal Corso  v.5.1
     Using radial grid of  929 points,  2 beta functions with:
                l(1) =   0
                l(2) =   0
     Q(r) pseudized with 0 coefficients

     atomic species   valence    mass     pseudopotential
        Sr            10.00    87.62000     Sr( 1.00)
        O              6.00    15.99900     O ( 1.00)
        Co            17.00    58.93319     Co( 1.00)
        H              1.00     1.00800     H ( 1.00)

     No symmetry found

                                    s                        frac. trans.

      isym =  1     identity

 cryst.   s( 1) = (     1          0          0      )
                  (     0          1          0      )
                  (     0          0          1      )

 cart.    s( 1) = (  1.0000000  0.0000000  0.0000000 )
                  (  0.0000000  1.0000000  0.0000000 )
                  (  0.0000000  0.0000000  1.0000000 )

   Cartesian axes

     site n.     atom                  positions (alat units)
         1           Sr  tau(   1) = (   0.2508693   0.7491307   1.7574407  )
         2           O   tau(   2) = (   0.4985141   0.5014859   1.7715967  )
         3           Sr  tau(   3) = (   0.7482398   0.7454518   1.7648669  )
         4           Sr  tau(   4) = (   0.7441748   0.2558252   1.7667843  )
         5           Sr  tau(   5) = (   0.2508693   0.7491307   1.2696799  )
         6           Sr  tau(   6) = (   0.2508693   0.7491307   0.7632319  )
         7           Co  tau(   7) = (   0.4998914   0.5001086   1.0164559  )
         8           Co  tau(   8) = (   0.4936915   0.5063085   1.5135603  )
         9           O   tau(   9) = (   0.4988895   0.7610401   1.0164559  )
        10           O   tau(  10) = (   0.2389599   0.5011105   1.0164559  )
        11           O   tau(  11) = (   0.0070918   0.7374880   1.0164559  )
        12           O   tau(  12) = (   0.0088340   0.7405089   1.5135603  )
        13           O   tau(  13) = (   0.5066944   0.7415376   1.5135603  )
        14           O   tau(  14) = (   0.2584624   0.4933056   1.5135603  )
        15           O   tau(  15) = (   0.4985141   0.5014859   0.7773880  )
        16           O   tau(  16) = (   0.4985141   0.5014859   1.2555238  )
        17           Sr  tau(  17) = (   0.7482398   0.7454518   0.7706582  )
        18           Sr  tau(  18) = (   0.7482398   0.7454518   1.2622536  )
        19           Sr  tau(  19) = (   0.7441748   0.2558252   0.7725755  )
        20           Sr  tau(  20) = (   0.7441748   0.2558252   1.2603363  )
        21           O   tau(  21) = (   0.7322655   0.0078049   1.5135603  )
        22           O   tau(  22) = (   0.7558175   0.4996027   1.5135603  )
        23           O   tau(  23) = (   0.5003973   0.2441825   1.5135603  )
        24           O   tau(  24) = (   0.7527966   0.4978604   1.0164559  )
        25           O   tau(  25) = (   0.5021396   0.2472034   1.0164559  )
        26           O   tau(  26) = (   0.7517679   0.0000000   1.0164559  )
        27           O   tau(  27) = (   0.0114961   0.4948124   1.7455321  )
        28           O   tau(  28) = (   0.0048226   0.0077944   1.7715967  )
        29           Sr  tau(  29) = (   0.2545482   0.2517602   1.7648669  )
        30           O   tau(  30) = (   0.5048017   0.0015068   1.7786929  )
        31           Co  tau(  31) = (   0.0056869   0.5006215   1.0164559  )
        32           Co  tau(  32) = (   0.0065315   0.4997770   1.5135603  )
        33           Co  tau(  33) = (   0.0061999   0.0064171   1.0164559  )
        34           Co  tau(  34) = (   0.0000000   0.0126169   1.5135603  )
        35           O   tau(  35) = (   0.0114961   0.4948124   1.2815885  )
        36           O   tau(  36) = (   0.0114961   0.4948124   0.7513233  )
        37           O   tau(  37) = (   0.0051979   0.2673486   1.0164559  )
        38           O   tau(  38) = (   0.0130029   0.2478461   1.5135603  )
        39           O   tau(  39) = (   0.0048226   0.0077944   0.7773880  )
        40           O   tau(  40) = (   0.0048226   0.0077944   1.2555238  )
        41           Sr  tau(  41) = (   0.2545482   0.2517602   0.7706582  )
        42           Sr  tau(  42) = (   0.2545482   0.2517602   1.2622536  )
        43           Co  tau(  43) = (   0.4989925   0.0073160   1.5135603  )
        44           Co  tau(  44) = (   0.4998370   0.0064714   1.0164559  )
        45           O   tau(  45) = (   0.5048017   0.0015068   0.7844841  )
        46           O   tau(  46) = (   0.5048017   0.0015068   1.2484277  )
        47           O   tau(  47) = (   0.2621260   0.0059111   1.5135603  )
        48           O   tau(  48) = (   0.2591051   0.0041689   1.0164559  )
        49           H   tau(  49) = (   0.4264937   0.5686583   2.1602013  )

   Crystallographic axes

     site n.     atom                  positions (cryst. coord.)
         1           Sr  tau(   1) = (  0.2508693  0.7491307  0.6943562  )
         2           O   tau(   2) = (  0.4985141  0.5014859  0.6999492  )
         3           Sr  tau(   3) = (  0.7482398  0.7454518  0.6972903  )
         4           Sr  tau(   4) = (  0.7441748  0.2558252  0.6980478  )
         5           Sr  tau(   5) = (  0.2508693  0.7491307  0.5016443  )
         6           Sr  tau(   6) = (  0.2508693  0.7491307  0.3015492  )
         7           Co  tau(   7) = (  0.4998914  0.5001086  0.4015968  )
         8           Co  tau(   8) = (  0.4936915  0.5063085  0.5980003  )
         9           O   tau(   9) = (  0.4988895  0.7610401  0.4015968  )
        10           O   tau(  10) = (  0.2389599  0.5011105  0.4015968  )
        11           O   tau(  11) = (  0.0070918  0.7374880  0.4015968  )
        12           O   tau(  12) = (  0.0088340  0.7405089  0.5980003  )
        13           O   tau(  13) = (  0.5066944  0.7415376  0.5980003  )
        14           O   tau(  14) = (  0.2584624  0.4933056  0.5980003  )
        15           O   tau(  15) = (  0.4985141  0.5014859  0.3071422  )
        16           O   tau(  16) = (  0.4985141  0.5014859  0.4960513  )
        17           Sr  tau(  17) = (  0.7482398  0.7454518  0.3044833  )
        18           Sr  tau(  18) = (  0.7482398  0.7454518  0.4987103  )
        19           Sr  tau(  19) = (  0.7441748  0.2558252  0.3052408  )
        20           Sr  tau(  20) = (  0.7441748  0.2558252  0.4979527  )
        21           O   tau(  21) = (  0.7322655  0.0078049  0.5980003  )
        22           O   tau(  22) = (  0.7558175  0.4996027  0.5980003  )
        23           O   tau(  23) = (  0.5003973  0.2441825  0.5980003  )
        24           O   tau(  24) = (  0.7527966  0.4978604  0.4015968  )
        25           O   tau(  25) = (  0.5021396  0.2472034  0.4015968  )
        26           O   tau(  26) = (  0.7517679  0.0000000  0.4015968  )
        27           O   tau(  27) = (  0.0114961  0.4948124  0.6896512  )
        28           O   tau(  28) = (  0.0048226  0.0077944  0.6999492  )
        29           Sr  tau(  29) = (  0.2545482  0.2517602  0.6972903  )
        30           O   tau(  30) = (  0.5048017  0.0015068  0.7027529  )
        31           Co  tau(  31) = (  0.0056869  0.5006215  0.4015968  )
        32           Co  tau(  32) = (  0.0065315  0.4997770  0.5980003  )
        33           Co  tau(  33) = (  0.0061999  0.0064171  0.4015968  )
        34           Co  tau(  34) = (  0.0000000  0.0126169  0.5980003  )
        35           O   tau(  35) = (  0.0114961  0.4948124  0.5063494  )
        36           O   tau(  36) = (  0.0114961  0.4948124  0.2968442  )
        37           O   tau(  37) = (  0.0051979  0.2673486  0.4015968  )
        38           O   tau(  38) = (  0.0130029  0.2478461  0.5980003  )
        39           O   tau(  39) = (  0.0048226  0.0077944  0.3071422  )
        40           O   tau(  40) = (  0.0048226  0.0077944  0.4960513  )
        41           Sr  tau(  41) = (  0.2545482  0.2517602  0.3044833  )
        42           Sr  tau(  42) = (  0.2545482  0.2517602  0.4987103  )
        43           Co  tau(  43) = (  0.4989925  0.0073160  0.5980003  )
        44           Co  tau(  44) = (  0.4998370  0.0064714  0.4015968  )
        45           O   tau(  45) = (  0.5048017  0.0015068  0.3099459  )
        46           O   tau(  46) = (  0.5048017  0.0015068  0.4932477  )
        47           O   tau(  47) = (  0.2621260  0.0059111  0.5980003  )
        48           O   tau(  48) = (  0.2591051  0.0041689  0.4015968  )
        49           H   tau(  49) = (  0.4264937  0.5686583  0.8534850  )

     number of k points=    10  Gaussian smearing, width (Ry)=  0.0700
                       cart. coord. in units 2pi/alat
        k(    1) = (   0.0000000   0.0000000   0.0000000), wk =   0.1250000
        k(    2) = (   0.0000000   0.2500000   0.0000000), wk =   0.2500000
        k(    3) = (   0.0000000  -0.5000000   0.0000000), wk =   0.1250000
        k(    4) = (   0.2500000   0.2500000   0.0000000), wk =   0.2500000
        k(    5) = (   0.2500000  -0.5000000   0.0000000), wk =   0.2500000
        k(    6) = (  -0.5000000  -0.5000000   0.0000000), wk =   0.1250000
        k(    7) = (   0.2500000   0.0000000   0.0000000), wk =   0.2500000
        k(    8) = (  -0.5000000   0.0000000   0.0000000), wk =   0.1250000
        k(    9) = (  -0.2500000   0.2500000   0.0000000), wk =   0.2500000
        k(   10) = (  -0.5000000   0.2500000   0.0000000), wk =   0.2500000

                       cryst. coord.
        k(    1) = (   0.0000000   0.0000000   0.0000000), wk =   0.1250000
        k(    2) = (   0.0000000   0.2500000   0.0000000), wk =   0.2500000
        k(    3) = (   0.0000000  -0.5000000   0.0000000), wk =   0.1250000
        k(    4) = (   0.2500000   0.2500000   0.0000000), wk =   0.2500000
        k(    5) = (   0.2500000  -0.5000000   0.0000000), wk =   0.2500000
        k(    6) = (  -0.5000000  -0.5000000   0.0000000), wk =   0.1250000
        k(    7) = (   0.2500000   0.0000000   0.0000000), wk =   0.2500000
        k(    8) = (  -0.5000000   0.0000000   0.0000000), wk =   0.1250000
        k(    9) = (  -0.2500000   0.2500000   0.0000000), wk =   0.2500000
        k(   10) = (  -0.5000000   0.2500000   0.0000000), wk =   0.2500000

     Check: negative core charge=   -0.000004

     Initial potential from superposition of free atoms

     starting charge     416.5961, renormalised to     425.0000

     negative rho (up, down):  7.827E-01 0.000E+00
     Starting wfcs are  373 randomized atomic wfcs
     Checking if some PAW data can be deallocated...

     Self-consistent Calculation

     iteration #  1     ecut=    60.00 Ry     beta= 0.15
     Davidson diagonalization with overlap

     ethr =  1.00E-02,  avg # of iterations =  2.0

     negative rho (up, down):  7.718E-01 0.000E+00

     total energy              =   -4404.76107512 Ry
     estimated scf accuracy    <      42.18518885 Ry

[...]

     c_bands:  1 eigenvalues not converged
     ethr =  1.72E-04,  avg # of iterations =  8.7

[...]

     c_bands:  1 eigenvalues not converged
     ethr =  1.87E-07,  avg # of iterations =  8.7

[...]

     total energy              =   -4399.91329904 Ry
     estimated scf accuracy    <       0.00000001 Ry

     iteration # 50     ecut=    60.00 Ry     beta= 0.15
     Davidson diagonalization with overlap

     ethr =  2.70E-12,  avg # of iterations =  2.1

     negative rho (up, down):  7.924E-01 0.000E+00

     End of self-consistent calculation

          k = 0.0000 0.0000 0.0000 ( 65197 PWs)   bands (ev):

   -92.7122 -92.6587 -92.5661 -92.5180 -92.4566 -92.4192 -92.4010 -92.2768
   -56.0656 -56.0454 -55.9235 -55.9129 -55.9049 -55.8997 -55.8621 -55.8354
   -55.8194 -55.8189 -55.8104 -55.7654 -55.7495 -55.7099 -55.6925 -55.6537
   -55.6532 -55.6068 -55.6043 -55.6042 -55.5958 -55.5511 -55.5315 -55.4434
   -31.2886 -31.2689 -31.1279 -31.1129 -31.0624 -31.0407 -30.8270 -30.7918
   -29.8607 -29.8170 -29.7921 -29.6831 -15.0930 -15.0531 -14.9703 -14.8391
   -14.6512 -14.5261 -14.2316 -14.2148 -14.1818 -14.1399 -14.0943 -14.0867
   -14.0728 -14.0551 -14.0297 -14.0018 -13.9425 -13.7930 -13.6178 -13.5800
   -13.5495 -13.5220 -13.5020 -13.4494 -13.4145 -13.3330 -13.2618 -13.1628
   -13.1286 -13.1212 -13.1044 -13.0862 -13.0688 -13.0406 -13.0169 -13.0037
   -12.9739 -12.9441 -12.9352 -12.9239 -12.9123 -12.9037 -12.8185 -12.7960
   -12.7829 -12.7156 -12.6701 -12.6503 -12.3532 -12.2077 -12.0636 -11.9875
   -11.8743 -11.7998 -11.7889 -11.7663 -11.7488 -11.6848 -11.6677 -11.6326
   -11.6042 -11.4925 -11.4123 -11.4086  -2.9542  -2.7215  -2.4915  -2.3457
    -2.2819  -2.1394  -1.8325  -1.8183  -1.7982  -1.7151  -1.6959  -1.6270
    -1.6110  -1.5682  -1.5263  -1.3446  -1.1215  -1.0904  -0.9425  -0.9286
    -0.8834  -0.8661  -0.8199  -0.8037  -0.7461  -0.7194  -0.6472  -0.6377
    -0.5589  -0.4274  -0.4144  -0.3869  -0.3054  -0.2898  -0.2788  -0.2158
    -0.1410  -0.0965  -0.0474  -0.0216   0.0437   0.1118   0.1680   0.1846
     0.2010   0.4562   0.4716   0.6412   0.7112   0.7746   0.8151   0.9079
     0.9215   0.9345   1.0088   1.0358   1.0698   1.1289   1.2613   1.3177
     1.3382   1.3570   1.3720   1.4356   1.5099   1.6130   1.6243   1.6864
     1.7021   1.7448   1.7599   1.7705   1.8222   1.8758   1.8903   1.9252
     1.9551   2.0114   2.1430   2.2308   2.2710   2.2800   2.4369   2.4480
     2.4985   2.5013   2.6053   2.6431   2.6685   2.6885   2.7037   2.7667
     2.8090   2.8970   2.9270   2.9408   2.9464   3.0133   3.0193   3.0419
     3.0498   3.0586   3.0680   3.0780   3.0904   3.0988   3.1084   3.1179
     3.1312   3.1453   3.1662   3.1715   3.1838   3.2227   3.3269   3.4279
     4.1010   4.4151   4.7554   4.8661   5.0365   5.8473   5.9489   5.9760
     5.9895   6.3025   6.3499   6.4801   6.4890   6.7336   7.0034   7.0935
     7.1405   7.1945   7.3058   7.5901   7.6217   7.6590   7.6741   7.9228
     8.0186   8.1077   8.1336   8.1575   8.4449   8.6484   8.7341   8.8593

     occupation numbers
     1.0000   1.0000   1.0000   1.0000   1.0000   1.0000   1.0000   1.0000
     1.0000   1.0000   1.0000   1.0000   1.0000   1.0000   1.0000   1.0000
     1.0000   1.0000   1.0000   1.0000   1.0000   1.0000   1.0000   1.0000
     1.0000   1.0000   1.0000   1.0000   1.0000   1.0000   1.0000   1.0000
     1.0000   1.0000   1.0000   1.0000   1.0000   1.0000   1.0000   1.0000
     1.0000   1.0000   1.0000   1.0000   1.0000   1.0000   1.0000   1.0000
     1.0000   1.0000   1.0000   1.0000   1.0000   1.0000   1.0000   1.0000
     1.0000   1.0000   1.0000   1.0000   1.0000   1.0000   1.0000   1.0000
     1.0000   1.0000   1.0000   1.0000   1.0000   1.0000   1.0000   1.0000
     1.0000   1.0000   1.0000   1.0000   1.0000   1.0000   1.0000   1.0000
     1.0000   1.0000   1.0000   1.0000   1.0000   1.0000   1.0000   1.0000
     1.0000   1.0000   1.0000   1.0000   1.0000   1.0000   1.0000   1.0000
     1.0000   1.0000   1.0000   1.0000   1.0000   1.0000   1.0000   1.0000
     1.0000   1.0000   1.0000   1.0000   1.0000   1.0000   1.0000   1.0000
     1.0000   1.0000   1.0000   1.0000   1.0000   1.0000   1.0000   1.0000
     1.0000   1.0000   1.0000   1.0000   1.0000   1.0000   1.0000   1.0000
     1.0000   1.0000   1.0000   1.0000   1.0000   1.0000   1.0000   1.0000
     1.0000   1.0000   1.0000   1.0000   1.0000   1.0000   1.0000   1.0000
     1.0000   1.0000   1.0000   1.0000   1.0000   1.0000   1.0000   1.0000
     1.0000   1.0000   1.0000   1.0000   0.9999   0.9999   0.9999   0.9998
     0.9998   0.9998   0.9997   0.9996   0.9996   0.9994   0.9989   0.9985
     0.9983   0.9982   0.9980   0.9974   0.9963   0.9943   0.9940   0.9922
     0.9917   0.9902   0.9895   0.9891   0.9867   0.9837   0.9828   0.9805
     0.9783   0.9736   0.9592   0.9464   0.9395   0.9379   0.9040   0.9011
     0.8874   0.8866   0.8542   0.8410   0.8316   0.8241   0.8182   0.7924
     0.7740   0.7328   0.7180   0.7110   0.7081   0.6732   0.6699   0.6577
     0.6534   0.6485   0.6433   0.6378   0.6309   0.6261   0.6208   0.6154
     0.6078   0.5997   0.5877   0.5846   0.5775   0.5548   0.4932   0.4337
     0.1217   0.0513   0.0162   0.0107   0.0053   0.0001   0.0000   0.0000
     0.0000   0.0000   0.0000   0.0000   0.0000   0.0000   0.0000   0.0000
     0.0000   0.0000   0.0000   0.0000   0.0000   0.0000   0.0000   0.0000
     0.0000   0.0000   0.0000   0.0000   0.0000   0.0000   0.0000   0.0000

[...]

          k =-0.5000-0.5000 0.0000 ( 65132 PWs)   bands (ev):

[...]

          k = 0.2500 0.0000 0.0000 ( 65257 PWs)   bands (ev):

[...]

          k =-0.5000 0.2500 0.0000 ( 65138 PWs)   bands (ev):

   -92.7122 -92.6587 -92.5661 -92.5180 -92.4566 -92.4192 -92.4010 -92.2768
   -56.0656 -56.0454 -55.9235 -55.9129 -55.9049 -55.8997 -55.8621 -55.8354
   -55.8194 -55.8189 -55.8104 -55.7654 -55.7495 -55.7099 -55.6925 -55.6537
   -55.6532 -55.6068 -55.6043 -55.6042 -55.5958 -55.5511 -55.5315 -55.4434
   -31.2846 -31.2726 -31.1273 -31.1121 -31.0627 -31.0416 -30.8263 -30.7930
   -29.8581 -29.8187 -29.7919 -29.6842 -14.9942 -14.9502 -14.8716 -14.7741
   -14.7306 -14.6045 -14.5168 -14.3904 -14.0793 -14.0484 -14.0361 -13.9892
   -13.9709 -13.9445 -13.9091 -13.9060 -13.8806 -13.8424 -13.8304 -13.7283
   -13.6491 -13.6022 -13.5988 -13.5859 -13.4845 -13.4781 -13.3857 -13.3455
   -13.2107 -13.1756 -13.0808 -13.0606 -13.0378 -13.0269 -13.0078 -12.9776
   -12.9565 -12.9476 -12.9310 -12.8721 -12.7818 -12.7603 -12.7189 -12.6962
   -12.6334 -12.6254 -12.5497 -12.4503 -12.3332 -12.3149 -12.2038 -12.1744
   -11.7838 -11.7711 -11.7569 -11.7452 -11.7236 -11.6932 -11.6133 -11.6046
   -11.5815 -11.5451 -11.5168 -11.5082  -2.4517  -2.4097  -2.2612  -2.2193
    -2.0586  -1.9830  -1.8397  -1.7047  -1.6477  -1.6208  -1.5812  -1.5422
    -1.4622  -1.3472  -1.2900  -1.2671  -1.2418  -1.1658  -1.1363  -1.0977
    -1.0802  -1.0194  -0.9912  -0.9513  -0.9163  -0.8874  -0.8298  -0.8029
    -0.7613  -0.7268  -0.6228  -0.5943  -0.5082  -0.4485  -0.4148  -0.3585
    -0.2737  -0.2397  -0.1391  -0.0968  -0.0449   0.0090   0.0317   0.1082
     0.1289   0.1610   0.2194   0.2582   0.5666   0.6375   0.6800   0.6988
     1.0045   1.0559   1.1332   1.1581   1.3352   1.3728   1.4097   1.4226
     1.4409   1.4584   1.5289   1.5701   1.6141   1.6385   1.7688   1.8046
     1.8273   1.8381   1.8739   1.9044   1.9175   1.9293   1.9515   1.9760
     2.0148   2.0392   2.0695   2.0920   2.1208   2.1833   2.3011   2.4056
     2.4334   2.5030   2.5418   2.5986   2.6408   2.6466   2.6839   2.7043
     2.7382   2.8143   2.8278   2.8677   2.8837   2.9003   2.9090   2.9294
     2.9428   2.9628   2.9703   2.9898   3.0024   3.0148   3.0210   3.0320
     3.0424   3.5675   3.6371   3.7612   3.7862   4.0491   4.1532   4.1912
     4.3958   4.7770   4.8831   5.0201   5.0663   5.3930   5.4219   5.5979
     5.6118   5.7380   5.7688   6.0980   6.3906   6.4927   6.6994   6.9805
     7.4461   7.5292   7.6766   7.7146   7.7900   7.8839   8.0159   8.1393
     8.2908   8.3773   8.4288   8.5255   8.5588   8.5804   8.6637   8.7383

     occupation numbers
     1.0000   1.0000   1.0000   1.0000   1.0000   1.0000   1.0000   1.0000
     1.0000   1.0000   1.0000   1.0000   1.0000   1.0000   1.0000   1.0000
     1.0000   1.0000   1.0000   1.0000   1.0000   1.0000   1.0000   1.0000
     1.0000   1.0000   1.0000   1.0000   1.0000   1.0000   1.0000   1.0000
     1.0000   1.0000   1.0000   1.0000   1.0000   1.0000   1.0000   1.0000
     1.0000   1.0000   1.0000   1.0000   1.0000   1.0000   1.0000   1.0000
     1.0000   1.0000   1.0000   1.0000   1.0000   1.0000   1.0000   1.0000
     1.0000   1.0000   1.0000   1.0000   1.0000   1.0000   1.0000   1.0000
     1.0000   1.0000   1.0000   1.0000   1.0000   1.0000   1.0000   1.0000
     1.0000   1.0000   1.0000   1.0000   1.0000   1.0000   1.0000   1.0000
     1.0000   1.0000   1.0000   1.0000   1.0000   1.0000   1.0000   1.0000
     1.0000   1.0000   1.0000   1.0000   1.0000   1.0000   1.0000   1.0000
     1.0000   1.0000   1.0000   1.0000   1.0000   1.0000   1.0000   1.0000
     1.0000   1.0000   1.0000   1.0000   1.0000   1.0000   1.0000   1.0000
     1.0000   1.0000   1.0000   1.0000   1.0000   1.0000   1.0000   1.0000
     1.0000   1.0000   1.0000   1.0000   1.0000   1.0000   1.0000   1.0000
     1.0000   1.0000   1.0000   1.0000   1.0000   1.0000   1.0000   1.0000
     1.0000   1.0000   1.0000   1.0000   1.0000   1.0000   1.0000   1.0000
     1.0000   1.0000   1.0000   1.0000   1.0000   1.0000   1.0000   1.0000
     1.0000   1.0000   1.0000   1.0000   1.0000   1.0000   1.0000   0.9999
     0.9997   0.9996   0.9994   0.9993   0.9984   0.9980   0.9977   0.9975
     0.9973   0.9971   0.9960   0.9952   0.9942   0.9936   0.9892   0.9876
     0.9864   0.9859   0.9838   0.9819   0.9810   0.9802   0.9786   0.9766
     0.9733   0.9710   0.9679   0.9654   0.9620   0.9536   0.9340   0.9117
     0.9049   0.8862   0.8747   0.8564   0.8418   0.8397   0.8258   0.8179
     0.8043   0.7716   0.7655   0.7469   0.7393   0.7312   0.7269   0.7167
     0.7100   0.6997   0.6958   0.6856   0.6789   0.6723   0.6690   0.6631
     0.6574   0.3541   0.3164   0.2540   0.2423   0.1380   0.1067   0.0967
     0.0543   0.0150   0.0100   0.0057   0.0047   0.0010   0.0009   0.0004
     0.0003   0.0002   0.0001   0.0000   0.0000   0.0000   0.0000   0.0000
     0.0000   0.0000   0.0000   0.0000   0.0000   0.0000   0.0000   0.0000
     0.0000   0.0000   0.0000   0.0000   0.0000   0.0000   0.0000   0.0000

     the Fermi energy is     3.3154 ev

!    total energy              =   -4399.91329903 Ry
     estimated scf accuracy    <          7.3E-09 Ry
     smearing contrib. (-TS)   =      -1.14524544 Ry
     internal energy E=F+TS    =   -4398.76805360 Ry

     The total energy is F=E-TS. E is the sum of the following terms:
     one-electron contribution =  -21253.04439934 Ry
     hartree contribution      =   10754.45042155 Ry
     xc contribution           =    -686.72693023 Ry
     ewald contribution        =    7053.19817714 Ry
     one-center paw contrib.   =    -266.64532272 Ry
      -> PAW hartree energy AE =      25.07580635 Ry
      -> PAW hartree energy PS =     -24.96090613 Ry
      -> PAW xc energy AE      =     -16.50502852 Ry
      -> PAW xc energy PS      =       6.86387867 Ry
      -> total E_H with PAW    =   10754.56532177 Ry
      -> total E_XC with PAW   =    -696.36808009 Ry

     convergence has been achieved in  50 iterations

     Writing all to output data dir /bsuhome/zayahcortright/scratch/pwscf.save/

     General routines

     Parallel routines

     PAW routines

   This run was terminated on:  17:49:17  21Jun2024

   JOB DONE.