     Program PWSCF v.7.2 starts on 22Jun2024 at  1: 4:32

     Reading input from espresso.pwi
Warning: card &CELL ignored
Warning: card / ignored
Warning: card &FCP ignored
Warning: card / ignored
Warning: card &RISM ignored
Warning: card / ignored

     Current dimensions of program PWSCF are:
     Max number of different atomic species (ntypx) = 10
     Max number of k-points (npk) =  40000
     Max angular momentum in pseudopotentials (lmaxx) =  4
     file O.pbe-n-kjpaw_psl.0.1.UPF: wavefunction(s)  2P renormalized
     signal trapping enabled: kill the code with -SIGUSR1 to stop cleanly the simulation

     K-points division:     npool     =       2
     R & G space division:  proc/nbgrp/npool/nimage =      24
     Subspace diagonalization in iterative solution of the eigenvalue problem:
     one sub-group per band group will be used

     Using Slab Decomposition

     bravais-lattice index     =            0
     lattice parameter (alat)  =      14.8599  a.u.
     unit-cell volume          =    8305.1283 (a.u.)^3
     number of atoms/cell      =           49
     number of atomic types    =            3
     number of electrons       =       430.00
     number of Kohn-Sham states=          258
     kinetic-energy cutoff     =      60.0000  Ry
     charge density cutoff     =     480.0000  Ry
     scf convergence threshold =      1.0E-08
     mixing beta               =       0.1500
     number of iterations used =            8  local-TF  mixing
     Exchange-correlation= SLA  PW   PBE  PBE
                           (   1   4   3   4   0   0   0)

     celldm(1)=  14.859904  celldm(2)=   0.000000  celldm(3)=   0.000000
     celldm(4)=   0.000000  celldm(5)=   0.000000  celldm(6)=   0.000000

     crystal axes: (cart. coord. in units of alat)
               a(1) = (   1.000000   0.000000   0.000000 )
               a(2) = (   0.000000   1.000000   0.000000 )
               a(3) = (   0.000000   0.000000   2.531036 )

     reciprocal axes: (cart. coord. in units 2 pi/alat)
               b(1) = (  1.000000  0.000000  0.000000 )
               b(2) = (  0.000000  1.000000  0.000000 )
               b(3) = (  0.000000  0.000000  0.395095 )

     PseudoPot. # 1 for Sr read from file:
     /bsuhome/zayahcortright/q-e/pseudo/Sr_pbe_v1.uspp.F.UPF
     MD5 check sum: 6b418c05fbe9db5448babca5e47b7a5b
     Pseudo is Ultrasoft + core correction, Zval = 10.0
     Generated by new atomic code, or converted to UPF format
     Using radial grid of  883 points,  6 beta functions with:
                l(1) =   0
                l(2) =   0
                l(3) =   1
                l(4) =   1
                l(5) =   2
                l(6) =   2
     Q(r) pseudized with  6 coefficients,  rinner =    1.400   1.400   1.400
                                                       1.400   1.400

     PseudoPot. # 2 for O  read from file:
     /bsuhome/zayahcortright/q-e/pseudo/O.pbe-n-kjpaw_psl.0.1.UPF
     MD5 check sum: 0234752ac141de4415c5fc33072bef88
     Pseudo is Projector augmented-wave + core cor, Zval =  6.0
     Generated using "atomic" code by A. Dal Corso  v.5.0.99 svn rev. 10869
     Shape of augmentation charge: BESSEL
     Using radial grid of 1095 points,  4 beta functions with:
                l(1) =   0
                l(2) =   0
                l(3) =   1
                l(4) =   1
     Q(r) pseudized with 0 coefficients

     PseudoPot. # 3 for Co read from file:
     /bsuhome/zayahcortright/q-e/pseudo/Co_pbe_v1.2.uspp.F.UPF
     MD5 check sum: 5f91765df6ddd3222702df6e7b74a16d
     Pseudo is Ultrasoft + core correction, Zval = 17.0
     Generated by new atomic code, or converted to UPF format
     Using radial grid of  863 points,  6 beta functions with:
                l(1) =   0
                l(2) =   0
                l(3) =   1
                l(4) =   1
                l(5) =   2
                l(6) =   2
     Q(r) pseudized with  8 coefficients,  rinner =    1.200   1.200   1.200
                                                       1.200   1.200

     atomic species   valence    mass     pseudopotential
        Sr            10.00    87.62000     Sr( 1.00)
        O              6.00    15.99900     O ( 1.00)
        Co            17.00    58.93319     Co( 1.00)

     No symmetry found

                                    s                        frac. trans.

      isym =  1     identity

 cryst.   s( 1) = (     1          0          0      )
                  (     0          1          0      )
                  (     0          0          1      )

 cart.    s( 1) = (  1.0000000  0.0000000  0.0000000 )
                  (  0.0000000  1.0000000  0.0000000 )
                  (  0.0000000  0.0000000  1.0000000 )

   Cartesian axes

     site n.     atom                  positions (alat units)
         1           Sr  tau(   1) = (   0.2508693   0.7491307   1.7574407  )
         2           O   tau(   2) = (   0.4985141   0.5014859   1.7715967  )
         3           Sr  tau(   3) = (   0.7482398   0.7454518   1.7648669  )
         4           Sr  tau(   4) = (   0.7441748   0.2558252   1.7667843  )
         5           Sr  tau(   5) = (   0.2508693   0.7491307   1.2696799  )
         6           Sr  tau(   6) = (   0.2508693   0.7491307   0.7632319  )
         7           Co  tau(   7) = (   0.4998914   0.5001086   1.0164559  )
         8           Co  tau(   8) = (   0.4936915   0.5063085   1.5135603  )
         9           O   tau(   9) = (   0.4988895   0.7610401   1.0164559  )
        10           O   tau(  10) = (   0.2389599   0.5011105   1.0164559  )
        11           O   tau(  11) = (   0.0070918   0.7374880   1.0164559  )
        12           O   tau(  12) = (   0.0088340   0.7405089   1.5135603  )
        13           O   tau(  13) = (   0.5066944   0.7415376   1.5135603  )
        14           O   tau(  14) = (   0.2584624   0.4933056   1.5135603  )
        15           O   tau(  15) = (   0.4985141   0.5014859   0.7773880  )
        16           O   tau(  16) = (   0.4985141   0.5014859   1.2555238  )
        17           Sr  tau(  17) = (   0.7482398   0.7454518   0.7706582  )
        18           Sr  tau(  18) = (   0.7482398   0.7454518   1.2622536  )
        19           Sr  tau(  19) = (   0.7441748   0.2558252   0.7725755  )
        20           Sr  tau(  20) = (   0.7441748   0.2558252   1.2603363  )
        21           O   tau(  21) = (   0.7322655   0.0078049   1.5135603  )
        22           O   tau(  22) = (   0.7558175   0.4996027   1.5135603  )
        23           O   tau(  23) = (   0.5003973   0.2441825   1.5135603  )
        24           O   tau(  24) = (   0.7527966   0.4978604   1.0164559  )
        25           O   tau(  25) = (   0.5021396   0.2472034   1.0164559  )
        26           O   tau(  26) = (   0.7517679   0.0000000   1.0164559  )
        27           O   tau(  27) = (   0.0114961   0.4948124   1.7455321  )
        28           O   tau(  28) = (   0.0048226   0.0077944   1.7715967  )
        29           Sr  tau(  29) = (   0.2545482   0.2517602   1.7648669  )
        30           O   tau(  30) = (   0.5048017   0.0015068   1.7786929  )
        31           Co  tau(  31) = (   0.0056869   0.5006215   1.0164559  )
        32           Co  tau(  32) = (   0.0065315   0.4997770   1.5135603  )
        33           Co  tau(  33) = (   0.0061999   0.0064171   1.0164559  )
        34           Co  tau(  34) = (   0.0000000   0.0126169   1.5135603  )
        35           O   tau(  35) = (   0.0114961   0.4948124   1.2815885  )
        36           O   tau(  36) = (   0.0114961   0.4948124   0.7513233  )
        37           O   tau(  37) = (   0.0051979   0.2673486   1.0164559  )
        38           O   tau(  38) = (   0.0130029   0.2478461   1.5135603  )
        39           O   tau(  39) = (   0.0048226   0.0077944   0.7773880  )
        40           O   tau(  40) = (   0.0048226   0.0077944   1.2555238  )
        41           Sr  tau(  41) = (   0.2545482   0.2517602   0.7706582  )
        42           Sr  tau(  42) = (   0.2545482   0.2517602   1.2622536  )
        43           Co  tau(  43) = (   0.4989925   0.0073160   1.5135603  )
        44           Co  tau(  44) = (   0.4998370   0.0064714   1.0164559  )
        45           O   tau(  45) = (   0.5048017   0.0015068   0.7844841  )
        46           O   tau(  46) = (   0.5048017   0.0015068   1.2484277  )
        47           O   tau(  47) = (   0.2621260   0.0059111   1.5135603  )
        48           O   tau(  48) = (   0.2591051   0.0041689   1.0164559  )
        49           O   tau(  49) = (   0.8529874   0.4264937   2.1602013  )

   Crystallographic axes

     site n.     atom                  positions (cryst. coord.)
         1           Sr  tau(   1) = (  0.2508693  0.7491307  0.6943562  )
         2           O   tau(   2) = (  0.4985141  0.5014859  0.6999492  )
         3           Sr  tau(   3) = (  0.7482398  0.7454518  0.6972903  )
         4           Sr  tau(   4) = (  0.7441748  0.2558252  0.6980478  )
         5           Sr  tau(   5) = (  0.2508693  0.7491307  0.5016443  )
         6           Sr  tau(   6) = (  0.2508693  0.7491307  0.3015492  )
         7           Co  tau(   7) = (  0.4998914  0.5001086  0.4015968  )
         8           Co  tau(   8) = (  0.4936915  0.5063085  0.5980003  )
         9           O   tau(   9) = (  0.4988895  0.7610401  0.4015968  )
        10           O   tau(  10) = (  0.2389599  0.5011105  0.4015968  )
        11           O   tau(  11) = (  0.0070918  0.7374880  0.4015968  )
        12           O   tau(  12) = (  0.0088340  0.7405089  0.5980003  )
        13           O   tau(  13) = (  0.5066944  0.7415376  0.5980003  )
        14           O   tau(  14) = (  0.2584624  0.4933056  0.5980003  )
        15           O   tau(  15) = (  0.4985141  0.5014859  0.3071422  )
        16           O   tau(  16) = (  0.4985141  0.5014859  0.4960513  )
        17           Sr  tau(  17) = (  0.7482398  0.7454518  0.3044833  )
        18           Sr  tau(  18) = (  0.7482398  0.7454518  0.4987103  )
        19           Sr  tau(  19) = (  0.7441748  0.2558252  0.3052408  )
        20           Sr  tau(  20) = (  0.7441748  0.2558252  0.4979527  )
        21           O   tau(  21) = (  0.7322655  0.0078049  0.5980003  )
        22           O   tau(  22) = (  0.7558175  0.4996027  0.5980003  )
        23           O   tau(  23) = (  0.5003973  0.2441825  0.5980003  )
        24           O   tau(  24) = (  0.7527966  0.4978604  0.4015968  )
        25           O   tau(  25) = (  0.5021396  0.2472034  0.4015968  )
        26           O   tau(  26) = (  0.7517679  0.0000000  0.4015968  )
        27           O   tau(  27) = (  0.0114961  0.4948124  0.6896512  )
        28           O   tau(  28) = (  0.0048226  0.0077944  0.6999492  )
        29           Sr  tau(  29) = (  0.2545482  0.2517602  0.6972903  )
        30           O   tau(  30) = (  0.5048017  0.0015068  0.7027529  )
        31           Co  tau(  31) = (  0.0056869  0.5006215  0.4015968  )
        32           Co  tau(  32) = (  0.0065315  0.4997770  0.5980003  )
        33           Co  tau(  33) = (  0.0061999  0.0064171  0.4015968  )
        34           Co  tau(  34) = (  0.0000000  0.0126169  0.5980003  )
        35           O   tau(  35) = (  0.0114961  0.4948124  0.5063494  )
        36           O   tau(  36) = (  0.0114961  0.4948124  0.2968442  )
        37           O   tau(  37) = (  0.0051979  0.2673486  0.4015968  )
        38           O   tau(  38) = (  0.0130029  0.2478461  0.5980003  )
        39           O   tau(  39) = (  0.0048226  0.0077944  0.3071422  )
        40           O   tau(  40) = (  0.0048226  0.0077944  0.4960513  )
        41           Sr  tau(  41) = (  0.2545482  0.2517602  0.3044833  )
        42           Sr  tau(  42) = (  0.2545482  0.2517602  0.4987103  )
        43           Co  tau(  43) = (  0.4989925  0.0073160  0.5980003  )
        44           Co  tau(  44) = (  0.4998370  0.0064714  0.4015968  )
        45           O   tau(  45) = (  0.5048017  0.0015068  0.3099459  )
        46           O   tau(  46) = (  0.5048017  0.0015068  0.4932477  )
        47           O   tau(  47) = (  0.2621260  0.0059111  0.5980003  )
        48           O   tau(  48) = (  0.2591051  0.0041689  0.4015968  )
        49           O   tau(  49) = (  0.8529874  0.4264937  0.8534850  )

     number of k points=    10  Gaussian smearing, width (Ry)=  0.0700
                       cart. coord. in units 2pi/alat
        k(    1) = (   0.0000000   0.0000000   0.0000000), wk =   0.1250000
        k(    2) = (   0.0000000   0.2500000   0.0000000), wk =   0.2500000
        k(    3) = (   0.0000000  -0.5000000   0.0000000), wk =   0.1250000
        k(    4) = (   0.2500000   0.2500000   0.0000000), wk =   0.2500000
        k(    5) = (   0.2500000  -0.5000000   0.0000000), wk =   0.2500000
        k(    6) = (  -0.5000000  -0.5000000   0.0000000), wk =   0.1250000
        k(    7) = (   0.2500000   0.0000000   0.0000000), wk =   0.2500000
        k(    8) = (  -0.5000000   0.0000000   0.0000000), wk =   0.1250000
        k(    9) = (  -0.2500000   0.2500000   0.0000000), wk =   0.2500000
        k(   10) = (  -0.5000000   0.2500000   0.0000000), wk =   0.2500000

                       cryst. coord.
        k(    1) = (   0.0000000   0.0000000   0.0000000), wk =   0.1250000
        k(    2) = (   0.0000000   0.2500000   0.0000000), wk =   0.2500000
        k(    3) = (   0.0000000  -0.5000000   0.0000000), wk =   0.1250000
        k(    4) = (   0.2500000   0.2500000   0.0000000), wk =   0.2500000
        k(    5) = (   0.2500000  -0.5000000   0.0000000), wk =   0.2500000
        k(    6) = (  -0.5000000  -0.5000000   0.0000000), wk =   0.1250000
        k(    7) = (   0.2500000   0.0000000   0.0000000), wk =   0.2500000
        k(    8) = (  -0.5000000   0.0000000   0.0000000), wk =   0.1250000
        k(    9) = (  -0.2500000   0.2500000   0.0000000), wk =   0.2500000
        k(   10) = (  -0.5000000   0.2500000   0.0000000), wk =   0.2500000

     Check: negative core charge=   -0.000004

     Initial potential from superposition of free atoms

     starting charge     421.5961, renormalised to     430.0000

     negative rho (up, down):  7.826E-01 0.000E+00
     Starting wfcs are  376 randomized atomic wfcs
     Checking if some PAW data can be deallocated...

     Self-consistent Calculation

     iteration #  1     ecut=    60.00 Ry     beta= 0.15
     Davidson diagonalization with overlap

     ethr =  1.00E-02,  avg # of iterations =  2.0

     negative rho (up, down):  7.717E-01 0.000E+00

     total energy              =   -4445.23983901 Ry
     estimated scf accuracy    <      54.01102428 Ry

[...]

     c_bands:  1 eigenvalues not converged
     ethr =  5.18E-05,  avg # of iterations =  8.6

[...]

     c_bands:  2 eigenvalues not converged
     ethr =  1.47E-06,  avg # of iterations =  6.2

[...]

     total energy              =   -4440.30947497 Ry
     estimated scf accuracy    <       0.00000002 Ry

     iteration # 48     ecut=    60.00 Ry     beta= 0.15
     Davidson diagonalization with overlap

     ethr =  5.32E-12,  avg # of iterations =  2.0

     negative rho (up, down):  7.926E-01 0.000E+00

     End of self-consistent calculation

          k = 0.0000 0.0000 0.0000 ( 65197 PWs)   bands (ev):

   -92.8977 -92.8492 -92.7525 -92.7057 -92.6483 -92.6047 -92.5868 -92.4665
   -56.2513 -56.2353 -56.1090 -56.0981 -56.0926 -56.0850 -56.0512 -56.0211
   -56.0057 -56.0047 -56.0005 -55.9546 -55.9364 -55.8988 -55.8795 -55.8485
   -55.8410 -55.7928 -55.7921 -55.7894 -55.7810 -55.7417 -55.7169 -55.6316
   -31.4604 -31.4411 -31.2985 -31.2124 -31.1699 -31.0915 -30.9404 -30.8865
   -30.0418 -29.9997 -29.9727 -29.8650 -15.2739 -15.2263 -15.1467 -15.0180
   -14.8147 -14.6968 -14.4088 -14.3871 -14.3607 -14.3120 -14.2640 -14.2466
   -14.2440 -14.2217 -14.2058 -14.1488 -14.1232 -13.9675 -13.7788 -13.7552
   -13.7257 -13.6855 -13.6709 -13.6140 -13.5805 -13.5030 -13.4350 -13.2965
   -13.2893 -13.2822 -13.2585 -13.2400 -13.1859 -13.1819 -13.1645 -13.1598
   -13.1325 -13.1056 -13.0832 -12.9994 -12.9938 -12.9788 -12.9132 -12.8956
   -12.8896 -12.7925 -12.7840 -12.7606 -12.5269 -12.3806 -12.1804 -12.1066
   -12.0551 -11.9962 -11.9815 -11.9701 -11.9474 -11.9297 -11.8663 -11.8486
   -11.8144 -11.7843 -11.6729 -11.5938 -11.5903  -3.1343  -2.9033  -2.6738
    -2.5247  -2.4640  -2.3224  -2.0139  -1.9986  -1.9811  -1.8919  -1.8747
    -1.8064  -1.7898  -1.7497  -1.7064  -1.5243  -1.2967  -1.2656  -1.1247
    -1.1096  -1.0619  -1.0400  -0.9942  -0.9786  -0.9281  -0.8998  -0.8227
    -0.8132  -0.7405  -0.6050  -0.5922  -0.5635  -0.4842  -0.4547  -0.4098
    -0.3829  -0.3197  -0.2633  -0.2175  -0.1942  -0.1206  -0.0568  -0.0125
     0.0134   0.0239   0.2850   0.3016   0.4768   0.5351   0.6011   0.6531
     0.7382   0.7485   0.7657   0.8339   0.8603   0.8935   0.9504   1.0799
     1.1403   1.1622   1.1910   1.2045   1.2613   1.3259   1.4441   1.4628
     1.5213   1.5242   1.5723   1.5909   1.6023   1.6569   1.7237   1.7261
     1.7669   1.7920   1.8372   1.9693   2.0601   2.0968   2.1171   2.2623
     2.2762   2.3168   2.3250   2.4292   2.4648   2.4856   2.5081   2.5264
     2.5607   2.6034   2.6187   2.6360   2.7164   2.7542   2.7582   2.7632
     2.8306   2.8422   2.8597   2.8660   2.8757   2.8887   2.8964   2.9111
     2.9180   2.9274   2.9346   2.9420   2.9621   2.9836   2.9882   3.0007
     3.0256   3.1409   3.2419   3.9227   4.2404   4.5971   4.8204   4.8548
     5.7622   5.8002   5.8220   5.9213   6.1217   6.1662   6.4255   6.4344
     6.9316   6.9879   7.0816   7.1483   7.4972   7.5308   7.5411   7.5702
     7.6840   7.8702   7.9442   8.0131   8.0218   8.1562   8.3728   8.4406
     8.7661   8.9211

     occupation numbers
     1.0000   1.0000   1.0000   1.0000   1.0000   1.0000   1.0000   1.0000
     1.0000   1.0000   1.0000   1.0000   1.0000   1.0000   1.0000   1.0000
     1.0000   1.0000   1.0000   1.0000   1.0000   1.0000   1.0000   1.0000
     1.0000   1.0000   1.0000   1.0000   1.0000   1.0000   1.0000   1.0000
     1.0000   1.0000   1.0000   1.0000   1.0000   1.0000   1.0000   1.0000
     1.0000   1.0000   1.0000   1.0000   1.0000   1.0000   1.0000   1.0000
     1.0000   1.0000   1.0000   1.0000   1.0000   1.0000   1.0000   1.0000
     1.0000   1.0000   1.0000   1.0000   1.0000   1.0000   1.0000   1.0000
     1.0000   1.0000   1.0000   1.0000   1.0000   1.0000   1.0000   1.0000
     1.0000   1.0000   1.0000   1.0000   1.0000   1.0000   1.0000   1.0000
     1.0000   1.0000   1.0000   1.0000   1.0000   1.0000   1.0000   1.0000
     1.0000   1.0000   1.0000   1.0000   1.0000   1.0000   1.0000   1.0000
     1.0000   1.0000   1.0000   1.0000   1.0000   1.0000   1.0000   1.0000
     1.0000   1.0000   1.0000   1.0000   1.0000   1.0000   1.0000   1.0000
     1.0000   1.0000   1.0000   1.0000   1.0000   1.0000   1.0000   1.0000
     1.0000   1.0000   1.0000   1.0000   1.0000   1.0000   1.0000   1.0000
     1.0000   1.0000   1.0000   1.0000   1.0000   1.0000   1.0000   1.0000
     1.0000   1.0000   1.0000   1.0000   1.0000   1.0000   1.0000   1.0000
     1.0000   1.0000   1.0000   1.0000   1.0000   1.0000   1.0000   1.0000
     1.0000   1.0000   1.0000   1.0000   1.0000   0.9999   0.9999   0.9999
     0.9998   0.9998   0.9998   0.9997   0.9996   0.9996   0.9994   0.9988
     0.9984   0.9983   0.9980   0.9979   0.9973   0.9963   0.9939   0.9934
     0.9916   0.9915   0.9897   0.9889   0.9884   0.9857   0.9817   0.9815
     0.9786   0.9766   0.9726   0.9577   0.9441   0.9377   0.9339   0.9015
     0.8978   0.8867   0.8843   0.8513   0.8387   0.8311   0.8225   0.8153
     0.8014   0.7833   0.7766   0.7688   0.7309   0.7121   0.7100   0.7075
     0.6722   0.6660   0.6565   0.6530   0.6477   0.6405   0.6362   0.6280
     0.6241   0.6188   0.6147   0.6105   0.5990   0.5866   0.5839   0.5767
     0.5621   0.4941   0.4346   0.1199   0.0497   0.0147   0.0061   0.0052
     0.0000   0.0000   0.0000   0.0000   0.0000   0.0000   0.0000   0.0000
     0.0000   0.0000   0.0000   0.0000   0.0000   0.0000   0.0000   0.0000
     0.0000   0.0000   0.0000   0.0000   0.0000   0.0000   0.0000   0.0000
     0.0000   0.0000

[...]

          k =-0.5000-0.5000 0.0000 ( 65132 PWs)   bands (ev):

[...]

          k = 0.2500 0.0000 0.0000 ( 65257 PWs)   bands (ev):

[...]

          k =-0.5000 0.2500 0.0000 ( 65138 PWs)   bands (ev):

   -92.8977 -92.8492 -92.7525 -92.7057 -92.6483 -92.6047 -92.5868 -92.4665
   -56.2513 -56.2353 -56.1090 -56.0981 -56.0926 -56.0850 -56.0512 -56.0211
   -56.0057 -56.0047 -56.0005 -55.9546 -55.9364 -55.8988 -55.8795 -55.8485
   -55.8410 -55.7928 -55.7921 -55.7894 -55.7810 -55.7417 -55.7169 -55.6316
   -31.4564 -31.4448 -31.2979 -31.2133 -31.1690 -31.0921 -30.9394 -30.8878
   -30.0391 -30.0015 -29.9725 -29.8661 -15.1740 -15.1272 -15.0495 -14.9438
   -14.9045 -14.7827 -14.6926 -14.5525 -14.2553 -14.2246 -14.2118 -14.1687
   -14.1423 -14.1210 -14.0849 -14.0612 -14.0486 -14.0108 -13.9872 -13.8845
   -13.8264 -13.7776 -13.7689 -13.7373 -13.6547 -13.6142 -13.5161 -13.4613
   -13.3836 -13.3477 -13.2493 -13.2104 -13.1995 -13.1695 -13.1352 -13.1227
   -13.0890 -13.0648 -12.9563 -12.9232 -12.8928 -12.8780 -12.8648 -12.8082
   -12.7987 -12.7858 -12.7231 -12.5392 -12.5056 -12.3913 -12.3371 -12.3135
   -11.9965 -11.9646 -11.9523 -11.9382 -11.9256 -11.9051 -11.8751 -11.7930
   -11.7856 -11.7614 -11.7266 -11.6990 -11.6898  -2.6310  -2.5898  -2.4431
    -2.4004  -2.2377  -2.1601  -2.0224  -1.8849  -1.8270  -1.8004  -1.7629
    -1.7257  -1.6441  -1.5280  -1.4707  -1.4475  -1.4206  -1.3430  -1.3161
    -1.2763  -1.2607  -1.2005  -1.1664  -1.1316  -1.0971  -1.0680  -1.0087
    -0.9803  -0.9385  -0.9025  -0.7980  -0.7727  -0.6730  -0.6213  -0.5882
    -0.5238  -0.4502  -0.4134  -0.3148  -0.2700  -0.2122  -0.1599  -0.1213
    -0.0673  -0.0403  -0.0073   0.0395   0.0801   0.4120   0.4729   0.5269
     0.5388   0.8318   0.8950   0.9658   0.9928   1.1638   1.1980   1.2359
     1.2443   1.2628   1.2810   1.3503   1.4001   1.4416   1.4751   1.5969
     1.6392   1.6602   1.6711   1.7073   1.7354   1.7521   1.7615   1.7793
     1.8053   1.8468   1.8606   1.8978   1.9241   1.9570   2.0087   2.1347
     2.2291   2.2587   2.3244   2.3582   2.4213   2.4515   2.4623   2.5058
     2.5350   2.5435   2.5642   2.5974   2.6346   2.6452   2.6900   2.7000
     2.7108   2.7321   2.7481   2.7591   2.7752   2.7912   2.8145   2.8262
     2.8350   2.8426   2.8509   2.8634   3.3974   3.4375   3.5815   3.6007
     3.8844   3.9646   4.0216   4.2177   4.5962   4.7006   4.8708   4.9275
     5.2301   5.2534   5.4791   5.5740   5.6009   5.6426   6.3236   6.4500
     6.4829   6.8029   7.3194   7.5918   7.6619   7.7188   7.7532   7.8004
     7.8715   7.9530   8.2618   8.3471   8.4076   8.4349   8.4908   8.5512
     8.6233   8.6926

     occupation numbers
     1.0000   1.0000   1.0000   1.0000   1.0000   1.0000   1.0000   1.0000
     1.0000   1.0000   1.0000   1.0000   1.0000   1.0000   1.0000   1.0000
     1.0000   1.0000   1.0000   1.0000   1.0000   1.0000   1.0000   1.0000
     1.0000   1.0000   1.0000   1.0000   1.0000   1.0000   1.0000   1.0000
     1.0000   1.0000   1.0000   1.0000   1.0000   1.0000   1.0000   1.0000
     1.0000   1.0000   1.0000   1.0000   1.0000   1.0000   1.0000   1.0000
     1.0000   1.0000   1.0000   1.0000   1.0000   1.0000   1.0000   1.0000
     1.0000   1.0000   1.0000   1.0000   1.0000   1.0000   1.0000   1.0000
     1.0000   1.0000   1.0000   1.0000   1.0000   1.0000   1.0000   1.0000
     1.0000   1.0000   1.0000   1.0000   1.0000   1.0000   1.0000   1.0000
     1.0000   1.0000   1.0000   1.0000   1.0000   1.0000   1.0000   1.0000
     1.0000   1.0000   1.0000   1.0000   1.0000   1.0000   1.0000   1.0000
     1.0000   1.0000   1.0000   1.0000   1.0000   1.0000   1.0000   1.0000
     1.0000   1.0000   1.0000   1.0000   1.0000   1.0000   1.0000   1.0000
     1.0000   1.0000   1.0000   1.0000   1.0000   1.0000   1.0000   1.0000
     1.0000   1.0000   1.0000   1.0000   1.0000   1.0000   1.0000   1.0000
     1.0000   1.0000   1.0000   1.0000   1.0000   1.0000   1.0000   1.0000
     1.0000   1.0000   1.0000   1.0000   1.0000   1.0000   1.0000   1.0000
     1.0000   1.0000   1.0000   1.0000   1.0000   1.0000   1.0000   1.0000
     1.0000   1.0000   1.0000   1.0000   1.0000   1.0000   1.0000   0.9999
     0.9999   0.9997   0.9996   0.9993   0.9993   0.9983   0.9979   0.9976
     0.9975   0.9972   0.9970   0.9959   0.9949   0.9939   0.9930   0.9886
     0.9866   0.9855   0.9849   0.9827   0.9809   0.9797   0.9790   0.9776
     0.9755   0.9717   0.9704   0.9665   0.9634   0.9594   0.9522   0.9305
     0.9097   0.9024   0.8845   0.8744   0.8540   0.8435   0.8396   0.8234
     0.8119   0.8085   0.8000   0.7859   0.7694   0.7646   0.7437   0.7389
     0.7337   0.7232   0.7152   0.7096   0.7014   0.6930   0.6808   0.6746
     0.6699   0.6657   0.6612   0.6544   0.3462   0.3245   0.2517   0.2427
     0.1316   0.1079   0.0930   0.0533   0.0148   0.0099   0.0049   0.0038
     0.0009   0.0008   0.0002   0.0001   0.0001   0.0001   0.0000   0.0000
     0.0000   0.0000   0.0000   0.0000   0.0000   0.0000   0.0000   0.0000
     0.0000   0.0000   0.0000   0.0000   0.0000   0.0000   0.0000   0.0000
     0.0000   0.0000

     the Fermi energy is     3.1310 ev

!    total energy              =   -4440.30947498 Ry
     estimated scf accuracy    <          8.9E-09 Ry
     smearing contrib. (-TS)   =      -1.20813432 Ry
     internal energy E=F+TS    =   -4439.10134066 Ry

     The total energy is F=E-TS. E is the sum of the following terms:
     one-electron contribution =  -20888.94249469 Ry
     hartree contribution      =   10573.27878633 Ry
     xc contribution           =    -693.24786583 Ry
     ewald contribution        =    6846.00121752 Ry
     one-center paw contrib.   =    -276.19098399 Ry
      -> PAW hartree energy AE =      25.13256260 Ry
      -> PAW hartree energy PS =     -25.01676492 Ry
      -> PAW xc energy AE      =     -16.51320280 Ry
      -> PAW xc energy PS      =       6.87245154 Ry
      -> total E_H with PAW    =   10573.39458400 Ry
      -> total E_XC with PAW   =    -702.88861709 Ry

     convergence has been achieved in  48 iterations

     Writing all to output data dir /bsuhome/zayahcortright/scratch/pwscf.save/

     General routines

     Parallel routines

     PAW routines

   This run was terminated on:   1:16:47  22Jun2024

   JOB DONE.