     Program PWSCF v.7.2 starts on 21Jun2024 at 22:56:10

     Reading input from espresso.pwi
Warning: card &CELL ignored
Warning: card / ignored
Warning: card &FCP ignored
Warning: card / ignored
Warning: card &RISM ignored
Warning: card / ignored

     Current dimensions of program PWSCF are:
     Max number of different atomic species (ntypx) = 10
     Max number of k-points (npk) =  40000
     Max angular momentum in pseudopotentials (lmaxx) =  4
     file O.pbe-n-kjpaw_psl.0.1.UPF: wavefunction(s)  2P renormalized
     signal trapping enabled: kill the code with -SIGUSR1 to stop cleanly the simulation

     K-points division:     npool     =       2
     R & G space division:  proc/nbgrp/npool/nimage =      24
     Subspace diagonalization in iterative solution of the eigenvalue problem:
     one sub-group per band group will be used

     Using Slab Decomposition

     bravais-lattice index     =            0
     lattice parameter (alat)  =      14.8599  a.u.
     unit-cell volume          =    8305.1283 (a.u.)^3
     number of atoms/cell      =           49
     number of atomic types    =            3
     number of electrons       =       430.00
     number of Kohn-Sham states=          258
     kinetic-energy cutoff     =      60.0000  Ry
     charge density cutoff     =     480.0000  Ry
     scf convergence threshold =      1.0E-08
     mixing beta               =       0.1500
     number of iterations used =            8  local-TF  mixing
     Exchange-correlation= SLA  PW   PBE  PBE
                           (   1   4   3   4   0   0   0)

     celldm(1)=  14.859904  celldm(2)=   0.000000  celldm(3)=   0.000000
     celldm(4)=   0.000000  celldm(5)=   0.000000  celldm(6)=   0.000000

     crystal axes: (cart. coord. in units of alat)
               a(1) = (   1.000000   0.000000   0.000000 )
               a(2) = (   0.000000   1.000000   0.000000 )
               a(3) = (   0.000000   0.000000   2.531036 )

     reciprocal axes: (cart. coord. in units 2 pi/alat)
               b(1) = (  1.000000  0.000000  0.000000 )
               b(2) = (  0.000000  1.000000  0.000000 )
               b(3) = (  0.000000  0.000000  0.395095 )

     PseudoPot. # 1 for Sr read from file:
     /bsuhome/zayahcortright/q-e/pseudo/Sr_pbe_v1.uspp.F.UPF
     MD5 check sum: 6b418c05fbe9db5448babca5e47b7a5b
     Pseudo is Ultrasoft + core correction, Zval = 10.0
     Generated by new atomic code, or converted to UPF format
     Using radial grid of  883 points,  6 beta functions with:
                l(1) =   0
                l(2) =   0
                l(3) =   1
                l(4) =   1
                l(5) =   2
                l(6) =   2
     Q(r) pseudized with  6 coefficients,  rinner =    1.400   1.400   1.400
                                                       1.400   1.400

     PseudoPot. # 2 for O  read from file:
     /bsuhome/zayahcortright/q-e/pseudo/O.pbe-n-kjpaw_psl.0.1.UPF
     MD5 check sum: 0234752ac141de4415c5fc33072bef88
     Pseudo is Projector augmented-wave + core cor, Zval =  6.0
     Generated using "atomic" code by A. Dal Corso  v.5.0.99 svn rev. 10869
     Shape of augmentation charge: BESSEL
     Using radial grid of 1095 points,  4 beta functions with:
                l(1) =   0
                l(2) =   0
                l(3) =   1
                l(4) =   1
     Q(r) pseudized with 0 coefficients

     PseudoPot. # 3 for Co read from file:
     /bsuhome/zayahcortright/q-e/pseudo/Co_pbe_v1.2.uspp.F.UPF
     MD5 check sum: 5f91765df6ddd3222702df6e7b74a16d
     Pseudo is Ultrasoft + core correction, Zval = 17.0
     Generated by new atomic code, or converted to UPF format
     Using radial grid of  863 points,  6 beta functions with:
                l(1) =   0
                l(2) =   0
                l(3) =   1
                l(4) =   1
                l(5) =   2
                l(6) =   2
     Q(r) pseudized with  8 coefficients,  rinner =    1.200   1.200   1.200
                                                       1.200   1.200

     atomic species   valence    mass     pseudopotential
        Sr            10.00    87.62000     Sr( 1.00)
        O              6.00    15.99900     O ( 1.00)
        Co            17.00    58.93319     Co( 1.00)

     No symmetry found

                                    s                        frac. trans.

      isym =  1     identity

 cryst.   s( 1) = (     1          0          0      )
                  (     0          1          0      )
                  (     0          0          1      )

 cart.    s( 1) = (  1.0000000  0.0000000  0.0000000 )
                  (  0.0000000  1.0000000  0.0000000 )
                  (  0.0000000  0.0000000  1.0000000 )

   Cartesian axes

     site n.     atom                  positions (alat units)
         1           Sr  tau(   1) = (   0.2508693   0.7491307   1.7574407  )
         2           O   tau(   2) = (   0.4985141   0.5014859   1.7715967  )
         3           Sr  tau(   3) = (   0.7482398   0.7454518   1.7648669  )
         4           Sr  tau(   4) = (   0.7441748   0.2558252   1.7667843  )
         5           Sr  tau(   5) = (   0.2508693   0.7491307   1.2696799  )
         6           Sr  tau(   6) = (   0.2508693   0.7491307   0.7632319  )
         7           Co  tau(   7) = (   0.4998914   0.5001086   1.0164559  )
         8           Co  tau(   8) = (   0.4936915   0.5063085   1.5135603  )
         9           O   tau(   9) = (   0.4988895   0.7610401   1.0164559  )
        10           O   tau(  10) = (   0.2389599   0.5011105   1.0164559  )
        11           O   tau(  11) = (   0.0070918   0.7374880   1.0164559  )
        12           O   tau(  12) = (   0.0088340   0.7405089   1.5135603  )
        13           O   tau(  13) = (   0.5066944   0.7415376   1.5135603  )
        14           O   tau(  14) = (   0.2584624   0.4933056   1.5135603  )
        15           O   tau(  15) = (   0.4985141   0.5014859   0.7773880  )
        16           O   tau(  16) = (   0.4985141   0.5014859   1.2555238  )
        17           Sr  tau(  17) = (   0.7482398   0.7454518   0.7706582  )
        18           Sr  tau(  18) = (   0.7482398   0.7454518   1.2622536  )
        19           Sr  tau(  19) = (   0.7441748   0.2558252   0.7725755  )
        20           Sr  tau(  20) = (   0.7441748   0.2558252   1.2603363  )
        21           O   tau(  21) = (   0.7322655   0.0078049   1.5135603  )
        22           O   tau(  22) = (   0.7558175   0.4996027   1.5135603  )
        23           O   tau(  23) = (   0.5003973   0.2441825   1.5135603  )
        24           O   tau(  24) = (   0.7527966   0.4978604   1.0164559  )
        25           O   tau(  25) = (   0.5021396   0.2472034   1.0164559  )
        26           O   tau(  26) = (   0.7517679   0.0000000   1.0164559  )
        27           O   tau(  27) = (   0.0114961   0.4948124   1.7455321  )
        28           O   tau(  28) = (   0.0048226   0.0077944   1.7715967  )
        29           Sr  tau(  29) = (   0.2545482   0.2517602   1.7648669  )
        30           O   tau(  30) = (   0.5048017   0.0015068   1.7786929  )
        31           Co  tau(  31) = (   0.0056869   0.5006215   1.0164559  )
        32           Co  tau(  32) = (   0.0065315   0.4997770   1.5135603  )
        33           Co  tau(  33) = (   0.0061999   0.0064171   1.0164559  )
        34           Co  tau(  34) = (   0.0000000   0.0126169   1.5135603  )
        35           O   tau(  35) = (   0.0114961   0.4948124   1.2815885  )
        36           O   tau(  36) = (   0.0114961   0.4948124   0.7513233  )
        37           O   tau(  37) = (   0.0051979   0.2673486   1.0164559  )
        38           O   tau(  38) = (   0.0130029   0.2478461   1.5135603  )
        39           O   tau(  39) = (   0.0048226   0.0077944   0.7773880  )
        40           O   tau(  40) = (   0.0048226   0.0077944   1.2555238  )
        41           Sr  tau(  41) = (   0.2545482   0.2517602   0.7706582  )
        42           Sr  tau(  42) = (   0.2545482   0.2517602   1.2622536  )
        43           Co  tau(  43) = (   0.4989925   0.0073160   1.5135603  )
        44           Co  tau(  44) = (   0.4998370   0.0064714   1.0164559  )
        45           O   tau(  45) = (   0.5048017   0.0015068   0.7844841  )
        46           O   tau(  46) = (   0.5048017   0.0015068   1.2484277  )
        47           O   tau(  47) = (   0.2621260   0.0059111   1.5135603  )
        48           O   tau(  48) = (   0.2591051   0.0041689   1.0164559  )
        49           O   tau(  49) = (   0.7108228   0.1421646   2.1602013  )

   Crystallographic axes

     site n.     atom                  positions (cryst. coord.)
         1           Sr  tau(   1) = (  0.2508693  0.7491307  0.6943562  )
         2           O   tau(   2) = (  0.4985141  0.5014859  0.6999492  )
         3           Sr  tau(   3) = (  0.7482398  0.7454518  0.6972903  )
         4           Sr  tau(   4) = (  0.7441748  0.2558252  0.6980478  )
         5           Sr  tau(   5) = (  0.2508693  0.7491307  0.5016443  )
         6           Sr  tau(   6) = (  0.2508693  0.7491307  0.3015492  )
         7           Co  tau(   7) = (  0.4998914  0.5001086  0.4015968  )
         8           Co  tau(   8) = (  0.4936915  0.5063085  0.5980003  )
         9           O   tau(   9) = (  0.4988895  0.7610401  0.4015968  )
        10           O   tau(  10) = (  0.2389599  0.5011105  0.4015968  )
        11           O   tau(  11) = (  0.0070918  0.7374880  0.4015968  )
        12           O   tau(  12) = (  0.0088340  0.7405089  0.5980003  )
        13           O   tau(  13) = (  0.5066944  0.7415376  0.5980003  )
        14           O   tau(  14) = (  0.2584624  0.4933056  0.5980003  )
        15           O   tau(  15) = (  0.4985141  0.5014859  0.3071422  )
        16           O   tau(  16) = (  0.4985141  0.5014859  0.4960513  )
        17           Sr  tau(  17) = (  0.7482398  0.7454518  0.3044833  )
        18           Sr  tau(  18) = (  0.7482398  0.7454518  0.4987103  )
        19           Sr  tau(  19) = (  0.7441748  0.2558252  0.3052408  )
        20           Sr  tau(  20) = (  0.7441748  0.2558252  0.4979527  )
        21           O   tau(  21) = (  0.7322655  0.0078049  0.5980003  )
        22           O   tau(  22) = (  0.7558175  0.4996027  0.5980003  )
        23           O   tau(  23) = (  0.5003973  0.2441825  0.5980003  )
        24           O   tau(  24) = (  0.7527966  0.4978604  0.4015968  )
        25           O   tau(  25) = (  0.5021396  0.2472034  0.4015968  )
        26           O   tau(  26) = (  0.7517679  0.0000000  0.4015968  )
        27           O   tau(  27) = (  0.0114961  0.4948124  0.6896512  )
        28           O   tau(  28) = (  0.0048226  0.0077944  0.6999492  )
        29           Sr  tau(  29) = (  0.2545482  0.2517602  0.6972903  )
        30           O   tau(  30) = (  0.5048017  0.0015068  0.7027529  )
        31           Co  tau(  31) = (  0.0056869  0.5006215  0.4015968  )
        32           Co  tau(  32) = (  0.0065315  0.4997770  0.5980003  )
        33           Co  tau(  33) = (  0.0061999  0.0064171  0.4015968  )
        34           Co  tau(  34) = (  0.0000000  0.0126169  0.5980003  )
        35           O   tau(  35) = (  0.0114961  0.4948124  0.5063494  )
        36           O   tau(  36) = (  0.0114961  0.4948124  0.2968442  )
        37           O   tau(  37) = (  0.0051979  0.2673486  0.4015968  )
        38           O   tau(  38) = (  0.0130029  0.2478461  0.5980003  )
        39           O   tau(  39) = (  0.0048226  0.0077944  0.3071422  )
        40           O   tau(  40) = (  0.0048226  0.0077944  0.4960513  )
        41           Sr  tau(  41) = (  0.2545482  0.2517602  0.3044833  )
        42           Sr  tau(  42) = (  0.2545482  0.2517602  0.4987103  )
        43           Co  tau(  43) = (  0.4989925  0.0073160  0.5980003  )
        44           Co  tau(  44) = (  0.4998370  0.0064714  0.4015968  )
        45           O   tau(  45) = (  0.5048017  0.0015068  0.3099459  )
        46           O   tau(  46) = (  0.5048017  0.0015068  0.4932477  )
        47           O   tau(  47) = (  0.2621260  0.0059111  0.5980003  )
        48           O   tau(  48) = (  0.2591051  0.0041689  0.4015968  )
        49           O   tau(  49) = (  0.7108228  0.1421646  0.8534850  )

     number of k points=    10  Gaussian smearing, width (Ry)=  0.0700
                       cart. coord. in units 2pi/alat
        k(    1) = (   0.0000000   0.0000000   0.0000000), wk =   0.1250000
        k(    2) = (   0.0000000   0.2500000   0.0000000), wk =   0.2500000
        k(    3) = (   0.0000000  -0.5000000   0.0000000), wk =   0.1250000
        k(    4) = (   0.2500000   0.2500000   0.0000000), wk =   0.2500000
        k(    5) = (   0.2500000  -0.5000000   0.0000000), wk =   0.2500000
        k(    6) = (  -0.5000000  -0.5000000   0.0000000), wk =   0.1250000
        k(    7) = (   0.2500000   0.0000000   0.0000000), wk =   0.2500000
        k(    8) = (  -0.5000000   0.0000000   0.0000000), wk =   0.1250000
        k(    9) = (  -0.2500000   0.2500000   0.0000000), wk =   0.2500000
        k(   10) = (  -0.5000000   0.2500000   0.0000000), wk =   0.2500000

                       cryst. coord.
        k(    1) = (   0.0000000   0.0000000   0.0000000), wk =   0.1250000
        k(    2) = (   0.0000000   0.2500000   0.0000000), wk =   0.2500000
        k(    3) = (   0.0000000  -0.5000000   0.0000000), wk =   0.1250000
        k(    4) = (   0.2500000   0.2500000   0.0000000), wk =   0.2500000
        k(    5) = (   0.2500000  -0.5000000   0.0000000), wk =   0.2500000
        k(    6) = (  -0.5000000  -0.5000000   0.0000000), wk =   0.1250000
        k(    7) = (   0.2500000   0.0000000   0.0000000), wk =   0.2500000
        k(    8) = (  -0.5000000   0.0000000   0.0000000), wk =   0.1250000
        k(    9) = (  -0.2500000   0.2500000   0.0000000), wk =   0.2500000
        k(   10) = (  -0.5000000   0.2500000   0.0000000), wk =   0.2500000

     Check: negative core charge=   -0.000004

     Initial potential from superposition of free atoms

     starting charge     421.5961, renormalised to     430.0000

     negative rho (up, down):  7.826E-01 0.000E+00
     Starting wfcs are  376 randomized atomic wfcs
     Checking if some PAW data can be deallocated...

     Self-consistent Calculation

     iteration #  1     ecut=    60.00 Ry     beta= 0.15
     Davidson diagonalization with overlap

     ethr =  1.00E-02,  avg # of iterations =  2.0

     negative rho (up, down):  7.718E-01 0.000E+00

     total energy              =   -4445.25283452 Ry
     estimated scf accuracy    <      53.77924067 Ry

[...]

     c_bands:  1 eigenvalues not converged
     ethr =  7.48E-05,  avg # of iterations = 13.7

[...]

     c_bands:  1 eigenvalues not converged
     c_bands:  1 eigenvalues not converged
     ethr =  2.01E-07,  avg # of iterations =  9.6

[...]

     total energy              =   -4440.30867017 Ry
     estimated scf accuracy    <       0.00000002 Ry

     iteration # 50     ecut=    60.00 Ry     beta= 0.15
     Davidson diagonalization with overlap

     ethr =  4.93E-12,  avg # of iterations =  2.0

     negative rho (up, down):  7.926E-01 0.000E+00

     End of self-consistent calculation

          k = 0.0000 0.0000 0.0000 ( 65197 PWs)   bands (ev):

   -92.8831 -92.8311 -92.7367 -92.6910 -92.6322 -92.5895 -92.5720 -92.4522
   -56.2367 -56.2179 -56.0937 -56.0834 -56.0767 -56.0703 -56.0346 -56.0057
   -55.9909 -55.9894 -55.9816 -55.9388 -55.9229 -55.8829 -55.8634 -55.8326
   -55.8255 -55.7772 -55.7771 -55.7743 -55.7659 -55.7273 -55.7020 -55.6185
   -31.4463 -31.4271 -31.2839 -31.2191 -31.1981 -31.0997 -30.9366 -30.7545
   -30.0266 -29.9852 -29.9573 -29.8495 -15.2591 -15.2134 -15.1325 -15.0033
   -14.8044 -14.6830 -14.3942 -14.3754 -14.3468 -14.2968 -14.2506 -14.2358
   -14.2292 -14.2106 -14.1944 -14.1330 -14.1083 -13.9537 -13.7725 -13.7418
   -13.7118 -13.6780 -13.6641 -13.6003 -13.5679 -13.4890 -13.4213 -13.2813
   -13.2721 -13.2646 -13.2441 -13.2257 -13.2081 -13.1712 -13.1586 -13.1483
   -13.1182 -13.0915 -13.0701 -13.0259 -13.0157 -12.9892 -12.8997 -12.8884
   -12.8837 -12.7322 -12.6993 -12.6576 -12.5125 -12.3667 -12.1452 -12.0801
   -12.0403 -11.9721 -11.9664 -11.9548 -11.9318 -11.9147 -11.8512 -11.8332
   -11.7995 -11.7688 -11.6572 -11.5787 -11.5751  -3.1201  -2.8884  -2.6589
    -2.5114  -2.4491  -2.3075  -1.9997  -1.9855  -1.9668  -1.8814  -1.8607
    -1.7928  -1.7763  -1.7357  -1.6923  -1.5094  -1.2849  -1.2548  -1.1099
    -1.0950  -1.0485  -1.0262  -0.9819  -0.9652  -0.9134  -0.8854  -0.8084
    -0.7968  -0.7257  -0.5901  -0.5767  -0.5503  -0.4694  -0.4434  -0.4390
    -0.3727  -0.3062  -0.2439  -0.2061  -0.1723  -0.1048  -0.0384   0.0028
     0.0309   0.0393   0.2978   0.3150   0.4886   0.5511   0.6212   0.6683
     0.7544   0.7653   0.7835   0.8486   0.8740   0.9088   0.9656   1.0946
     1.1569   1.1767   1.2006   1.2150   1.2760   1.3411   1.4550   1.4693
     1.5345   1.5466   1.5896   1.6041   1.6127   1.6717   1.7292   1.7486
     1.7863   1.8247   1.8525   1.9842   2.0728   2.1091   2.1358   2.2830
     2.3002   2.3320   2.3390   2.4436   2.4811   2.5058   2.5236   2.5377
     2.5447   2.6179   2.6464   2.6588   2.7311   2.7609   2.7718   2.7778
     2.8465   2.8528   2.8742   2.8813   2.8906   2.9056   2.9108   2.9247
     2.9298   2.9437   2.9504   2.9577   2.9769   2.9984   3.0032   3.0155
     3.0522   3.1561   3.2489   3.9383   4.2620   4.6130   4.8277   4.8703
     5.7517   5.7963   5.8291   5.8717   6.1351   6.1812   6.4349   6.4429
     6.9409   6.9759   7.0840   7.1608   7.3690   7.5026   7.5461   7.5667
     7.7153   7.8556   7.8845   7.9728   8.0316   8.1564   8.4350   8.4997
     8.7559   8.9299

     occupation numbers
     1.0000   1.0000   1.0000   1.0000   1.0000   1.0000   1.0000   1.0000
     1.0000   1.0000   1.0000   1.0000   1.0000   1.0000   1.0000   1.0000
     1.0000   1.0000   1.0000   1.0000   1.0000   1.0000   1.0000   1.0000
     1.0000   1.0000   1.0000   1.0000   1.0000   1.0000   1.0000   1.0000
     1.0000   1.0000   1.0000   1.0000   1.0000   1.0000   1.0000   1.0000
     1.0000   1.0000   1.0000   1.0000   1.0000   1.0000   1.0000   1.0000
     1.0000   1.0000   1.0000   1.0000   1.0000   1.0000   1.0000   1.0000
     1.0000   1.0000   1.0000   1.0000   1.0000   1.0000   1.0000   1.0000
     1.0000   1.0000   1.0000   1.0000   1.0000   1.0000   1.0000   1.0000
     1.0000   1.0000   1.0000   1.0000   1.0000   1.0000   1.0000   1.0000
     1.0000   1.0000   1.0000   1.0000   1.0000   1.0000   1.0000   1.0000
     1.0000   1.0000   1.0000   1.0000   1.0000   1.0000   1.0000   1.0000
     1.0000   1.0000   1.0000   1.0000   1.0000   1.0000   1.0000   1.0000
     1.0000   1.0000   1.0000   1.0000   1.0000   1.0000   1.0000   1.0000
     1.0000   1.0000   1.0000   1.0000   1.0000   1.0000   1.0000   1.0000
     1.0000   1.0000   1.0000   1.0000   1.0000   1.0000   1.0000   1.0000
     1.0000   1.0000   1.0000   1.0000   1.0000   1.0000   1.0000   1.0000
     1.0000   1.0000   1.0000   1.0000   1.0000   1.0000   1.0000   1.0000
     1.0000   1.0000   1.0000   1.0000   1.0000   1.0000   1.0000   1.0000
     1.0000   1.0000   1.0000   1.0000   1.0000   0.9999   0.9999   0.9999
     0.9998   0.9998   0.9998   0.9997   0.9996   0.9996   0.9994   0.9988
     0.9984   0.9983   0.9981   0.9979   0.9973   0.9963   0.9940   0.9936
     0.9916   0.9912   0.9896   0.9890   0.9886   0.9857   0.9823   0.9810
     0.9782   0.9751   0.9726   0.9577   0.9445   0.9382   0.9332   0.9000
     0.8954   0.8866   0.8846   0.8515   0.8382   0.8291   0.8223   0.8168
     0.8140   0.7835   0.7709   0.7652   0.7310   0.7163   0.7107   0.7077
     0.6717   0.6683   0.6567   0.6528   0.6477   0.6394   0.6365   0.6287
     0.6259   0.6180   0.6142   0.6101   0.5991   0.5867   0.5839   0.5768
     0.5553   0.4940   0.4392   0.1197   0.0487   0.0147   0.0063   0.0052
     0.0001   0.0000   0.0000   0.0000   0.0000   0.0000   0.0000   0.0000
     0.0000   0.0000   0.0000   0.0000   0.0000   0.0000   0.0000   0.0000
     0.0000   0.0000   0.0000   0.0000   0.0000   0.0000   0.0000   0.0000
     0.0000   0.0000

[...]

          k =-0.5000-0.5000 0.0000 ( 65132 PWs)   bands (ev):

[...]

          k = 0.2500 0.0000 0.0000 ( 65257 PWs)   bands (ev):

[...]

          k =-0.5000 0.2500 0.0000 ( 65138 PWs)   bands (ev):

   -92.8831 -92.8311 -92.7367 -92.6910 -92.6322 -92.5895 -92.5720 -92.4522
   -56.2367 -56.2179 -56.0937 -56.0834 -56.0767 -56.0703 -56.0346 -56.0057
   -55.9909 -55.9894 -55.9816 -55.9388 -55.9229 -55.8829 -55.8634 -55.8326
   -55.8255 -55.7772 -55.7771 -55.7743 -55.7659 -55.7273 -55.7020 -55.6185
   -31.4422 -31.4309 -31.2833 -31.2186 -31.1990 -31.1000 -30.9365 -30.7549
   -30.0239 -29.9870 -29.9572 -29.8507 -15.1596 -15.1144 -15.0358 -14.9303
   -14.8898 -14.7682 -14.6791 -14.5399 -14.2412 -14.2110 -14.1988 -14.1550
   -14.1300 -14.1067 -14.0720 -14.0546 -14.0356 -13.9973 -13.9756 -13.8667
   -13.8115 -13.7629 -13.7590 -13.7450 -13.6409 -13.6154 -13.4915 -13.4316
   -13.3696 -13.3336 -13.2357 -13.1971 -13.1855 -13.1627 -13.1380 -13.1137
   -13.1071 -13.0678 -12.9661 -12.9280 -12.8827 -12.8597 -12.8371 -12.7922
   -12.7842 -12.7096 -12.6765 -12.5069 -12.4921 -12.3623 -12.2975 -12.2719
   -11.9733 -11.9492 -11.9371 -11.9232 -11.9099 -11.8905 -11.8602 -11.7775
   -11.7704 -11.7459 -11.7112 -11.6838 -11.6744  -2.6175  -2.5757  -2.4284
    -2.3853  -2.2238  -2.1488  -2.0075  -1.8702  -1.8150  -1.7876  -1.7493
    -1.7107  -1.6293  -1.5133  -1.4561  -1.4326  -1.4075  -1.3305  -1.3015
    -1.2629  -1.2461  -1.1860  -1.1546  -1.1179  -1.0826  -1.0536  -0.9953
    -0.9661  -0.9234  -0.8899  -0.7862  -0.7579  -0.6694  -0.6037  -0.5774
    -0.5200  -0.4345  -0.3966  -0.3024  -0.2521  -0.2002  -0.1428  -0.1255
    -0.0531  -0.0242   0.0091   0.0538   0.0952   0.4116   0.4796   0.5590
     0.5768   0.8483   0.9034   0.9786   0.9997   1.1764   1.2121   1.2495
     1.2583   1.2775   1.2958   1.3640   1.4113   1.4551   1.4802   1.6171
     1.6466   1.6723   1.6869   1.7374   1.7486   1.7654   1.7804   1.7976
     1.8201   1.8712   1.8783   1.9161   1.9397   1.9760   2.0247   2.1494
     2.2469   2.2731   2.3405   2.3732   2.4331   2.4721   2.4788   2.5178
     2.5403   2.5523   2.5741   2.6342   2.6475   2.6674   2.7066   2.7138
     2.7205   2.7405   2.7624   2.7749   2.7888   2.8055   2.8250   2.8387
     2.8461   2.8548   2.8660   2.8778   3.4086   3.4636   3.5954   3.6185
     3.9061   3.9781   4.0288   4.2501   4.6104   4.7119   4.8762   4.9441
     5.2337   5.2671   5.4927   5.5667   5.6152   5.6404   6.3365   6.3806
     6.4570   6.6997   7.2958   7.6035   7.6716   7.7224   7.7449   7.7988
     7.9037   7.9652   8.2750   8.3056   8.4133   8.4288   8.5026   8.5628
     8.6981   8.7215

     occupation numbers
     1.0000   1.0000   1.0000   1.0000   1.0000   1.0000   1.0000   1.0000
     1.0000   1.0000   1.0000   1.0000   1.0000   1.0000   1.0000   1.0000
     1.0000   1.0000   1.0000   1.0000   1.0000   1.0000   1.0000   1.0000
     1.0000   1.0000   1.0000   1.0000   1.0000   1.0000   1.0000   1.0000
     1.0000   1.0000   1.0000   1.0000   1.0000   1.0000   1.0000   1.0000
     1.0000   1.0000   1.0000   1.0000   1.0000   1.0000   1.0000   1.0000
     1.0000   1.0000   1.0000   1.0000   1.0000   1.0000   1.0000   1.0000
     1.0000   1.0000   1.0000   1.0000   1.0000   1.0000   1.0000   1.0000
     1.0000   1.0000   1.0000   1.0000   1.0000   1.0000   1.0000   1.0000
     1.0000   1.0000   1.0000   1.0000   1.0000   1.0000   1.0000   1.0000
     1.0000   1.0000   1.0000   1.0000   1.0000   1.0000   1.0000   1.0000
     1.0000   1.0000   1.0000   1.0000   1.0000   1.0000   1.0000   1.0000
     1.0000   1.0000   1.0000   1.0000   1.0000   1.0000   1.0000   1.0000
     1.0000   1.0000   1.0000   1.0000   1.0000   1.0000   1.0000   1.0000
     1.0000   1.0000   1.0000   1.0000   1.0000   1.0000   1.0000   1.0000
     1.0000   1.0000   1.0000   1.0000   1.0000   1.0000   1.0000   1.0000
     1.0000   1.0000   1.0000   1.0000   1.0000   1.0000   1.0000   1.0000
     1.0000   1.0000   1.0000   1.0000   1.0000   1.0000   1.0000   1.0000
     1.0000   1.0000   1.0000   1.0000   1.0000   1.0000   1.0000   1.0000
     1.0000   1.0000   1.0000   1.0000   1.0000   1.0000   1.0000   0.9999
     0.9999   0.9997   0.9996   0.9994   0.9993   0.9983   0.9980   0.9976
     0.9975   0.9972   0.9970   0.9959   0.9950   0.9940   0.9933   0.9884
     0.9870   0.9857   0.9849   0.9818   0.9810   0.9798   0.9787   0.9774
     0.9755   0.9708   0.9701   0.9661   0.9634   0.9588   0.9520   0.9305
     0.9091   0.9025   0.8841   0.8744   0.8551   0.8415   0.8390   0.8245
     0.8158   0.8110   0.8021   0.7763   0.7704   0.7613   0.7429   0.7394
     0.7362   0.7264   0.7155   0.7091   0.7020   0.6934   0.6831   0.6759
     0.6719   0.6672   0.6612   0.6547   0.3483   0.3186   0.2523   0.2414
     0.1295   0.1083   0.0949   0.0505   0.0148   0.0100   0.0051   0.0038
     0.0010   0.0008   0.0002   0.0002   0.0001   0.0001   0.0000   0.0000
     0.0000   0.0000   0.0000   0.0000   0.0000   0.0000   0.0000   0.0000
     0.0000   0.0000   0.0000   0.0000   0.0000   0.0000   0.0000   0.0000
     0.0000   0.0000

     the Fermi energy is     3.1459 ev

!    total energy              =   -4440.30867015 Ry
     estimated scf accuracy    <          9.8E-09 Ry
     smearing contrib. (-TS)   =      -1.20782945 Ry
     internal energy E=F+TS    =   -4439.10084070 Ry

     The total energy is F=E-TS. E is the sum of the following terms:
     one-electron contribution =  -20890.40550968 Ry
     hartree contribution      =   10574.24428398 Ry
     xc contribution           =    -693.25328446 Ry
     ewald contribution        =    6846.50460818 Ry
     one-center paw contrib.   =    -276.19093871 Ry
      -> PAW hartree energy AE =      25.14925104 Ry
      -> PAW hartree energy PS =     -25.03327484 Ry
      -> PAW xc energy AE      =     -16.51558200 Ry
      -> PAW xc energy PS      =       6.87494298 Ry
      -> total E_H with PAW    =   10574.36026018 Ry
      -> total E_XC with PAW   =    -702.89392348 Ry

     convergence has been achieved in  50 iterations

     Writing all to output data dir /bsuhome/zayahcortright/scratch/pwscf.save/

     General routines

     Parallel routines

     PAW routines

   This run was terminated on:  23: 9: 2  21Jun2024

   JOB DONE.