     Program PWSCF v.7.2 starts on  3Jul2024 at 15: 2:37

     Reading input from espresso.pwi
Warning: card &CELL ignored
Warning: card / ignored
Warning: card &FCP ignored
Warning: card / ignored
Warning: card &RISM ignored
Warning: card / ignored

     Current dimensions of program PWSCF are:
     Max number of different atomic species (ntypx) = 10
     Max number of k-points (npk) =  40000
     Max angular momentum in pseudopotentials (lmaxx) =  4
     file O.pbe-n-kjpaw_psl.0.1.UPF: wavefunction(s)  2P renormalized
     signal trapping enabled: kill the code with -SIGUSR1 to stop cleanly the simulation

     K-points division:     npool     =       2
     R & G space division:  proc/nbgrp/npool/nimage =      24
     Subspace diagonalization in iterative solution of the eigenvalue problem:
     one sub-group per band group will be used

     Using Slab Decomposition

     bravais-lattice index     =            0
     lattice parameter (alat)  =      14.8599  a.u.
     unit-cell volume          =    8305.1283 (a.u.)^3
     number of atoms/cell      =           48
     number of atomic types    =            3
     number of electrons       =       424.00
     number of Kohn-Sham states=          254
     kinetic-energy cutoff     =      60.0000  Ry
     charge density cutoff     =     480.0000  Ry
     scf convergence threshold =      1.0E-08
     mixing beta               =       0.1500
     number of iterations used =            8  local-TF  mixing
     Exchange-correlation= SLA  PW   PBE  PBE
                           (   1   4   3   4   0   0   0)

     celldm(1)=  14.859904  celldm(2)=   0.000000  celldm(3)=   0.000000
     celldm(4)=   0.000000  celldm(5)=   0.000000  celldm(6)=   0.000000

     crystal axes: (cart. coord. in units of alat)
               a(1) = (   1.000000   0.000000   0.000000 )
               a(2) = (   0.000000   1.000000   0.000000 )
               a(3) = (   0.000000   0.000000   2.531036 )

     reciprocal axes: (cart. coord. in units 2 pi/alat)
               b(1) = (  1.000000  0.000000  0.000000 )
               b(2) = (  0.000000  1.000000  0.000000 )
               b(3) = (  0.000000  0.000000  0.395095 )

     PseudoPot. # 1 for Sr read from file:
     /bsuhome/zayahcortright/q-e/pseudo/Sr_pbe_v1.uspp.F.UPF
     MD5 check sum: 6b418c05fbe9db5448babca5e47b7a5b
     Pseudo is Ultrasoft + core correction, Zval = 10.0
     Generated by new atomic code, or converted to UPF format
     Using radial grid of  883 points,  6 beta functions with:
                l(1) =   0
                l(2) =   0
                l(3) =   1
                l(4) =   1
                l(5) =   2
                l(6) =   2
     Q(r) pseudized with  6 coefficients,  rinner =    1.400   1.400   1.400
                                                       1.400   1.400

     PseudoPot. # 2 for O  read from file:
     /bsuhome/zayahcortright/q-e/pseudo/O.pbe-n-kjpaw_psl.0.1.UPF
     MD5 check sum: 0234752ac141de4415c5fc33072bef88
     Pseudo is Projector augmented-wave + core cor, Zval =  6.0
     Generated using "atomic" code by A. Dal Corso  v.5.0.99 svn rev. 10869
     Shape of augmentation charge: BESSEL
     Using radial grid of 1095 points,  4 beta functions with:
                l(1) =   0
                l(2) =   0
                l(3) =   1
                l(4) =   1
     Q(r) pseudized with 0 coefficients

     PseudoPot. # 3 for Co read from file:
     /bsuhome/zayahcortright/q-e/pseudo/Co_pbe_v1.2.uspp.F.UPF
     MD5 check sum: 5f91765df6ddd3222702df6e7b74a16d
     Pseudo is Ultrasoft + core correction, Zval = 17.0
     Generated by new atomic code, or converted to UPF format
     Using radial grid of  863 points,  6 beta functions with:
                l(1) =   0
                l(2) =   0
                l(3) =   1
                l(4) =   1
                l(5) =   2
                l(6) =   2
     Q(r) pseudized with  8 coefficients,  rinner =    1.200   1.200   1.200
                                                       1.200   1.200

     atomic species   valence    mass     pseudopotential
        Sr            10.00    87.62000     Sr( 1.00)
        O              6.00    15.99900     O ( 1.00)
        Co            17.00    58.93319     Co( 1.00)

     No symmetry found

                                    s                        frac. trans.

      isym =  1     identity

 cryst.   s( 1) = (     1          0          0      )
                  (     0          1          0      )
                  (     0          0          1      )

 cart.    s( 1) = (  1.0000000  0.0000000  0.0000000 )
                  (  0.0000000  1.0000000  0.0000000 )
                  (  0.0000000  0.0000000  1.0000000 )

   Cartesian axes

     site n.     atom                  positions (alat units)
         1           Sr  tau(   1) = (   0.2508693   0.7491307   1.7574407  )
         2           O   tau(   2) = (   0.4985141   0.5014859   1.7715967  )
         3           Sr  tau(   3) = (   0.7482398   0.7454518   1.7648669  )
         4           Sr  tau(   4) = (   0.7441748   0.2558252   1.7667843  )
         5           Sr  tau(   5) = (   0.2508693   0.7491307   1.2696799  )
         6           Sr  tau(   6) = (   0.2508693   0.7491307   0.7632319  )
         7           Co  tau(   7) = (   0.4998914   0.5001086   1.0164559  )
         8           Co  tau(   8) = (   0.4936915   0.5063085   1.5135603  )
         9           O   tau(   9) = (   0.4988895   0.7610401   1.0164559  )
        10           O   tau(  10) = (   0.2389599   0.5011105   1.0164559  )
        11           O   tau(  11) = (   0.0070918   0.7374880   1.0164559  )
        12           O   tau(  12) = (   0.0088340   0.7405089   1.5135603  )
        13           O   tau(  13) = (   0.5066944   0.7415376   1.5135603  )
        14           O   tau(  14) = (   0.2584624   0.4933056   1.5135603  )
        15           O   tau(  15) = (   0.4985141   0.5014859   0.7773880  )
        16           O   tau(  16) = (   0.4985141   0.5014859   1.2555238  )
        17           Sr  tau(  17) = (   0.7482398   0.7454518   0.7706582  )
        18           Sr  tau(  18) = (   0.7482398   0.7454518   1.2622536  )
        19           Sr  tau(  19) = (   0.7441748   0.2558252   0.7725755  )
        20           Sr  tau(  20) = (   0.7441748   0.2558252   1.2603363  )
        21           O   tau(  21) = (   0.7322655   0.0078049   1.5135603  )
        22           O   tau(  22) = (   0.7558175   0.4996027   1.5135603  )
        23           O   tau(  23) = (   0.5003973   0.2441825   1.5135603  )
        24           O   tau(  24) = (   0.7527966   0.4978604   1.0164559  )
        25           O   tau(  25) = (   0.5021396   0.2472034   1.0164559  )
        26           O   tau(  26) = (   0.7517679   0.0000000   1.0164559  )
        27           O   tau(  27) = (   0.0114961   0.4948124   1.7455321  )
        28           O   tau(  28) = (   0.0048226   0.0077944   1.7715967  )
        29           Sr  tau(  29) = (   0.2545482   0.2517602   1.7648669  )
        30           O   tau(  30) = (   0.5048017   0.0015068   1.7786929  )
        31           Co  tau(  31) = (   0.0056869   0.5006215   1.0164559  )
        32           Co  tau(  32) = (   0.0065315   0.4997770   1.5135603  )
        33           Co  tau(  33) = (   0.0061999   0.0064171   1.0164559  )
        34           Co  tau(  34) = (   0.0000000   0.0126169   1.5135603  )
        35           O   tau(  35) = (   0.0114961   0.4948124   1.2815885  )
        36           O   tau(  36) = (   0.0114961   0.4948124   0.7513233  )
        37           O   tau(  37) = (   0.0051979   0.2673486   1.0164559  )
        38           O   tau(  38) = (   0.0130029   0.2478461   1.5135603  )
        39           O   tau(  39) = (   0.0048226   0.0077944   0.7773880  )
        40           O   tau(  40) = (   0.0048226   0.0077944   1.2555238  )
        41           Sr  tau(  41) = (   0.2545482   0.2517602   0.7706582  )
        42           Sr  tau(  42) = (   0.2545482   0.2517602   1.2622536  )
        43           Co  tau(  43) = (   0.4989925   0.0073160   1.5135603  )
        44           Co  tau(  44) = (   0.4998370   0.0064714   1.0164559  )
        45           O   tau(  45) = (   0.5048017   0.0015068   0.7844841  )
        46           O   tau(  46) = (   0.5048017   0.0015068   1.2484277  )
        47           O   tau(  47) = (   0.2621260   0.0059111   1.5135603  )
        48           O   tau(  48) = (   0.2591051   0.0041689   1.0164559  )

   Crystallographic axes

     site n.     atom                  positions (cryst. coord.)
         1           Sr  tau(   1) = (  0.2508693  0.7491307  0.6943562  )
         2           O   tau(   2) = (  0.4985141  0.5014859  0.6999492  )
         3           Sr  tau(   3) = (  0.7482398  0.7454518  0.6972903  )
         4           Sr  tau(   4) = (  0.7441748  0.2558252  0.6980478  )
         5           Sr  tau(   5) = (  0.2508693  0.7491307  0.5016443  )
         6           Sr  tau(   6) = (  0.2508693  0.7491307  0.3015492  )
         7           Co  tau(   7) = (  0.4998914  0.5001086  0.4015968  )
         8           Co  tau(   8) = (  0.4936915  0.5063085  0.5980003  )
         9           O   tau(   9) = (  0.4988895  0.7610401  0.4015968  )
        10           O   tau(  10) = (  0.2389599  0.5011105  0.4015968  )
        11           O   tau(  11) = (  0.0070918  0.7374880  0.4015968  )
        12           O   tau(  12) = (  0.0088340  0.7405089  0.5980003  )
        13           O   tau(  13) = (  0.5066944  0.7415376  0.5980003  )
        14           O   tau(  14) = (  0.2584624  0.4933056  0.5980003  )
        15           O   tau(  15) = (  0.4985141  0.5014859  0.3071422  )
        16           O   tau(  16) = (  0.4985141  0.5014859  0.4960513  )
        17           Sr  tau(  17) = (  0.7482398  0.7454518  0.3044833  )
        18           Sr  tau(  18) = (  0.7482398  0.7454518  0.4987103  )
        19           Sr  tau(  19) = (  0.7441748  0.2558252  0.3052408  )
        20           Sr  tau(  20) = (  0.7441748  0.2558252  0.4979527  )
        21           O   tau(  21) = (  0.7322655  0.0078049  0.5980003  )
        22           O   tau(  22) = (  0.7558175  0.4996027  0.5980003  )
        23           O   tau(  23) = (  0.5003973  0.2441825  0.5980003  )
        24           O   tau(  24) = (  0.7527966  0.4978604  0.4015968  )
        25           O   tau(  25) = (  0.5021396  0.2472034  0.4015968  )
        26           O   tau(  26) = (  0.7517679  0.0000000  0.4015968  )
        27           O   tau(  27) = (  0.0114961  0.4948124  0.6896512  )
        28           O   tau(  28) = (  0.0048226  0.0077944  0.6999492  )
        29           Sr  tau(  29) = (  0.2545482  0.2517602  0.6972903  )
        30           O   tau(  30) = (  0.5048017  0.0015068  0.7027529  )
        31           Co  tau(  31) = (  0.0056869  0.5006215  0.4015968  )
        32           Co  tau(  32) = (  0.0065315  0.4997770  0.5980003  )
        33           Co  tau(  33) = (  0.0061999  0.0064171  0.4015968  )
        34           Co  tau(  34) = (  0.0000000  0.0126169  0.5980003  )
        35           O   tau(  35) = (  0.0114961  0.4948124  0.5063494  )
        36           O   tau(  36) = (  0.0114961  0.4948124  0.2968442  )
        37           O   tau(  37) = (  0.0051979  0.2673486  0.4015968  )
        38           O   tau(  38) = (  0.0130029  0.2478461  0.5980003  )
        39           O   tau(  39) = (  0.0048226  0.0077944  0.3071422  )
        40           O   tau(  40) = (  0.0048226  0.0077944  0.4960513  )
        41           Sr  tau(  41) = (  0.2545482  0.2517602  0.3044833  )
        42           Sr  tau(  42) = (  0.2545482  0.2517602  0.4987103  )
        43           Co  tau(  43) = (  0.4989925  0.0073160  0.5980003  )
        44           Co  tau(  44) = (  0.4998370  0.0064714  0.4015968  )
        45           O   tau(  45) = (  0.5048017  0.0015068  0.3099459  )
        46           O   tau(  46) = (  0.5048017  0.0015068  0.4932477  )
        47           O   tau(  47) = (  0.2621260  0.0059111  0.5980003  )
        48           O   tau(  48) = (  0.2591051  0.0041689  0.4015968  )

     number of k points=    10  Gaussian smearing, width (Ry)=  0.0700
                       cart. coord. in units 2pi/alat
        k(    1) = (   0.0000000   0.0000000   0.0000000), wk =   0.1250000
        k(    2) = (   0.0000000   0.2500000   0.0000000), wk =   0.2500000
        k(    3) = (   0.0000000  -0.5000000   0.0000000), wk =   0.1250000
        k(    4) = (   0.2500000   0.2500000   0.0000000), wk =   0.2500000
        k(    5) = (   0.2500000  -0.5000000   0.0000000), wk =   0.2500000
        k(    6) = (  -0.5000000  -0.5000000   0.0000000), wk =   0.1250000
        k(    7) = (   0.2500000   0.0000000   0.0000000), wk =   0.2500000
        k(    8) = (  -0.5000000   0.0000000   0.0000000), wk =   0.1250000
        k(    9) = (  -0.2500000   0.2500000   0.0000000), wk =   0.2500000
        k(   10) = (  -0.5000000   0.2500000   0.0000000), wk =   0.2500000

                       cryst. coord.
        k(    1) = (   0.0000000   0.0000000   0.0000000), wk =   0.1250000
        k(    2) = (   0.0000000   0.2500000   0.0000000), wk =   0.2500000
        k(    3) = (   0.0000000  -0.5000000   0.0000000), wk =   0.1250000
        k(    4) = (   0.2500000   0.2500000   0.0000000), wk =   0.2500000
        k(    5) = (   0.2500000  -0.5000000   0.0000000), wk =   0.2500000
        k(    6) = (  -0.5000000  -0.5000000   0.0000000), wk =   0.1250000
        k(    7) = (   0.2500000   0.0000000   0.0000000), wk =   0.2500000
        k(    8) = (  -0.5000000   0.0000000   0.0000000), wk =   0.1250000
        k(    9) = (  -0.2500000   0.2500000   0.0000000), wk =   0.2500000
        k(   10) = (  -0.5000000   0.2500000   0.0000000), wk =   0.2500000

     Check: negative core charge=   -0.000004

     Initial potential from superposition of free atoms

     starting charge     415.5961, renormalised to     424.0000

     negative rho (up, down):  7.832E-01 0.000E+00
     Starting wfcs are  372 randomized atomic wfcs
     Checking if some PAW data can be deallocated...

     Self-consistent Calculation

     iteration #  1     ecut=    60.00 Ry     beta= 0.15
     Davidson diagonalization with overlap

     ethr =  1.00E-02,  avg # of iterations =  2.0

     negative rho (up, down):  7.715E-01 0.000E+00

     total energy              =   -4403.45192678 Ry
     estimated scf accuracy    <      42.50789142 Ry

[...]

     total energy              =   -4398.87714791 Ry
     estimated scf accuracy    <       0.00000001 Ry

     iteration # 47     ecut=    60.00 Ry     beta= 0.15
     Davidson diagonalization with overlap

     ethr =  2.40E-12,  avg # of iterations =  4.9

     negative rho (up, down):  7.922E-01 0.000E+00

     End of self-consistent calculation

          k = 0.0000 0.0000 0.0000 ( 65197 PWs)   bands (ev):

   -92.2568 -92.1951 -92.1105 -92.0559 -91.9971 -91.9629 -91.9457 -91.8158
   -55.6097 -55.5807 -55.4688 -55.4582 -55.4469 -55.4448 -55.4020 -55.3804
   -55.3635 -55.3616 -55.3480 -55.3075 -55.2879 -55.2506 -55.2360 -55.1957
   -55.1904 -55.1523 -55.1491 -55.1458 -55.1406 -55.0885 -55.0768 -54.9843
   -30.8486 -30.8296 -30.8186 -30.7323 -30.6888 -30.6163 -30.6022 -30.5078
   -29.4132 -29.3697 -29.3435 -29.2348 -14.6472 -14.6235 -14.5298 -14.3979
   -14.2313 -14.1073 -13.7951 -13.7817 -13.7433 -13.7086 -13.6752 -13.6672
   -13.6436 -13.6308 -13.6131 -13.5758 -13.4977 -13.3558 -13.1994 -13.1502
   -13.1102 -13.0930 -13.0710 -13.0293 -12.9787 -12.8966 -12.8463 -12.8266
   -12.7910 -12.7095 -12.6813 -12.6731 -12.6458 -12.6430 -12.6243 -12.6115
   -12.6019 -12.5673 -12.5538 -12.5339 -12.5298 -12.5140 -12.4984 -12.4848
   -12.4508 -12.4295 -12.3972 -12.3801 -11.9137 -11.7695 -11.7360 -11.6675
   -11.4277 -11.3524 -11.3410 -11.3198 -11.3019 -11.2374 -11.2201 -11.1858
   -11.1570 -11.0462 -10.9644 -10.9610  -2.5090  -2.2731  -2.0438  -1.9006
    -1.8337  -1.6888  -1.3855  -1.3709  -1.3464  -1.2694  -1.2515  -1.1831
    -1.1684  -1.1236  -1.0781  -0.8996  -0.6808  -0.6514  -0.4930  -0.4815
    -0.4426  -0.4255  -0.3818  -0.3684  -0.2984  -0.2724  -0.2141  -0.2020
    -0.1101   0.0102   0.0280   0.0540   0.0980   0.1387   0.1474   0.2164
     0.2956   0.3019   0.3827   0.4031   0.4364   0.5382   0.6090   0.6252
     0.6369   0.8817   0.8980   1.0584   1.1438   1.1988   1.2246   1.3371
     1.3533   1.3634   1.4435   1.4737   1.5083   1.5691   1.7088   1.7509
     1.7729   1.7847   1.7930   1.8708   1.9614   2.0283   2.0473   2.0965
     2.1352   2.1654   2.1884   2.1975   2.2481   2.2878   2.2975   2.3167
     2.3475   2.4470   2.5722   2.6488   2.7011   2.7119   2.8620   2.8739
     2.9332   2.9542   3.0421   3.0869   3.1092   3.1335   3.1466   3.2188
     3.3372   3.3715   3.3903   3.3977   3.4606   3.4669   3.4914   3.5008
     3.5063   3.5113   3.5238   3.5359   3.5414   3.5565   3.5660   3.5738
     3.5953   3.6163   3.6221   3.6328   3.6395   3.7722   3.7866   4.4853
     4.8255   4.8368   5.1302   5.2330   5.4488   6.2488   6.3362   6.3866
     6.4195   6.6301   6.6392   6.7524   6.8036   6.8303   6.8328   7.1189
     7.1474   7.4181   7.4214   7.6976   7.7963   7.8593   7.9849   7.9991
     8.1424   8.1557   8.3327   8.3498   8.3720   8.3824

     occupation numbers
     1.0000   1.0000   1.0000   1.0000   1.0000   1.0000   1.0000   1.0000
     1.0000   1.0000   1.0000   1.0000   1.0000   1.0000   1.0000   1.0000
     1.0000   1.0000   1.0000   1.0000   1.0000   1.0000   1.0000   1.0000
     1.0000   1.0000   1.0000   1.0000   1.0000   1.0000   1.0000   1.0000
     1.0000   1.0000   1.0000   1.0000   1.0000   1.0000   1.0000   1.0000
     1.0000   1.0000   1.0000   1.0000   1.0000   1.0000   1.0000   1.0000
     1.0000   1.0000   1.0000   1.0000   1.0000   1.0000   1.0000   1.0000
     1.0000   1.0000   1.0000   1.0000   1.0000   1.0000   1.0000   1.0000
     1.0000   1.0000   1.0000   1.0000   1.0000   1.0000   1.0000   1.0000
     1.0000   1.0000   1.0000   1.0000   1.0000   1.0000   1.0000   1.0000
     1.0000   1.0000   1.0000   1.0000   1.0000   1.0000   1.0000   1.0000
     1.0000   1.0000   1.0000   1.0000   1.0000   1.0000   1.0000   1.0000
     1.0000   1.0000   1.0000   1.0000   1.0000   1.0000   1.0000   1.0000
     1.0000   1.0000   1.0000   1.0000   1.0000   1.0000   1.0000   1.0000
     1.0000   1.0000   1.0000   1.0000   1.0000   1.0000   1.0000   1.0000
     1.0000   1.0000   1.0000   1.0000   1.0000   1.0000   1.0000   1.0000
     1.0000   1.0000   1.0000   1.0000   1.0000   1.0000   1.0000   1.0000
     1.0000   1.0000   1.0000   1.0000   1.0000   1.0000   1.0000   1.0000
     1.0000   1.0000   1.0000   1.0000   1.0000   1.0000   1.0000   1.0000
     1.0000   1.0000   1.0000   1.0000   1.0000   0.9999   0.9999   0.9998
     0.9998   0.9998   0.9997   0.9997   0.9996   0.9995   0.9989   0.9986
     0.9985   0.9984   0.9983   0.9976   0.9964   0.9951   0.9947   0.9935
     0.9924   0.9914   0.9905   0.9902   0.9880   0.9861   0.9855   0.9845
     0.9826   0.9752   0.9622   0.9518   0.9436   0.9417   0.9109   0.9080
     0.8926   0.8867   0.8597   0.8443   0.8363   0.8272   0.8222   0.7929
     0.7391   0.7223   0.7129   0.7092   0.6764   0.6730   0.6598   0.6546
     0.6516   0.6489   0.6420   0.6352   0.6322   0.6236   0.6183   0.6139
     0.6016   0.5895   0.5862   0.5800   0.5761   0.4979   0.4894   0.1436
     0.0583   0.0564   0.0216   0.0148   0.0063   0.0001   0.0001   0.0001
     0.0000   0.0000   0.0000   0.0000   0.0000   0.0000   0.0000   0.0000
     0.0000   0.0000   0.0000   0.0000   0.0000   0.0000   0.0000   0.0000
     0.0000   0.0000   0.0000   0.0000   0.0000   0.0000

[...]

          k =-0.5000-0.5000 0.0000 ( 65132 PWs)   bands (ev):

[...]

          k = 0.2500 0.0000 0.0000 ( 65257 PWs)   bands (ev):

[...]

          k =-0.5000 0.2500 0.0000 ( 65138 PWs)   bands (ev):

   -92.2568 -92.1951 -92.1105 -92.0559 -91.9971 -91.9629 -91.9457 -91.8158
   -55.6097 -55.5807 -55.4688 -55.4582 -55.4469 -55.4448 -55.4020 -55.3804
   -55.3635 -55.3616 -55.3480 -55.3075 -55.2879 -55.2506 -55.2360 -55.1957
   -55.1904 -55.1523 -55.1491 -55.1458 -55.1406 -55.0885 -55.0768 -54.9843
   -30.8443 -30.8336 -30.8180 -30.7324 -30.6883 -30.6163 -30.6031 -30.5084
   -29.4106 -29.3714 -29.3434 -29.2360 -14.5532 -14.5132 -14.4339 -14.3428
   -14.2912 -14.1629 -14.0918 -13.9664 -13.6456 -13.6109 -13.5977 -13.5573
   -13.5484 -13.5063 -13.4915 -13.4737 -13.4591 -13.4207 -13.3883 -13.3326
   -13.2097 -13.1948 -13.1554 -13.1465 -13.1376 -13.0403 -13.0379 -12.9831
   -12.7733 -12.7536 -12.7311 -12.6735 -12.6490 -12.6295 -12.5970 -12.5863
   -12.5560 -12.5426 -12.5295 -12.5113 -12.5013 -12.4783 -12.4321 -12.4183
   -12.1936 -12.1862 -12.1382 -12.1106 -11.9860 -11.8953 -11.8840 -11.8605
   -11.3365 -11.3240 -11.3099 -11.2983 -11.2771 -11.2468 -11.1659 -11.1569
   -11.1339 -11.0981 -11.0695 -11.0602  -2.0082  -1.9645  -1.8129  -1.7717
    -1.6153  -1.5399  -1.3923  -1.2571  -1.2014  -1.1728  -1.1332  -1.0919
    -1.0141  -0.9000  -0.8433  -0.8195  -0.7960  -0.7262  -0.6892  -0.6572
    -0.6326  -0.5739  -0.5498  -0.5054  -0.4696  -0.4416  -0.3861  -0.3621
    -0.3186  -0.2862  -0.1836  -0.1582  -0.0816  -0.0130   0.0189   0.0745
     0.1612   0.1889   0.2949   0.3168   0.3803   0.4160   0.4430   0.5361
     0.5618   0.5962   0.6659   0.6984   0.9822   1.0270   1.0837   1.0941
     1.4212   1.4737   1.5570   1.5803   1.7683   1.8075   1.8445   1.8630
     1.8812   1.8997   1.9672   2.0053   2.0384   2.0655   2.1530   2.1996
     2.2459   2.2606   2.2828   2.3211   2.3304   2.3495   2.3725   2.3954
     2.4458   2.4817   2.5063   2.5224   2.5444   2.6232   2.7312   2.8419
     2.8739   2.9462   2.9933   3.0454   3.0854   3.0974   3.1268   3.1626
     3.1860   3.2689   3.3111   3.3239   3.3351   3.3548   3.3782   3.3915
     3.4051   3.4177   3.4350   3.4481   3.4619   3.4696   3.4783   3.4904
     4.0028   4.0276   4.2081   4.2310   4.4743   4.5431   4.5993   4.7915
     5.2012   5.2502   5.3549   5.3838   5.5583   5.6355   5.7801   5.8330
     5.9924   6.0384   6.1020   6.1666   6.5162   6.5494   6.7686   6.8267
     6.9937   7.0403   7.9267   7.9775   8.0596   8.1154   8.1361   8.2572
     8.3074   8.3767   8.4386   8.4891   8.5447   8.5944

     occupation numbers
     1.0000   1.0000   1.0000   1.0000   1.0000   1.0000   1.0000   1.0000
     1.0000   1.0000   1.0000   1.0000   1.0000   1.0000   1.0000   1.0000
     1.0000   1.0000   1.0000   1.0000   1.0000   1.0000   1.0000   1.0000
     1.0000   1.0000   1.0000   1.0000   1.0000   1.0000   1.0000   1.0000
     1.0000   1.0000   1.0000   1.0000   1.0000   1.0000   1.0000   1.0000
     1.0000   1.0000   1.0000   1.0000   1.0000   1.0000   1.0000   1.0000
     1.0000   1.0000   1.0000   1.0000   1.0000   1.0000   1.0000   1.0000
     1.0000   1.0000   1.0000   1.0000   1.0000   1.0000   1.0000   1.0000
     1.0000   1.0000   1.0000   1.0000   1.0000   1.0000   1.0000   1.0000
     1.0000   1.0000   1.0000   1.0000   1.0000   1.0000   1.0000   1.0000
     1.0000   1.0000   1.0000   1.0000   1.0000   1.0000   1.0000   1.0000
     1.0000   1.0000   1.0000   1.0000   1.0000   1.0000   1.0000   1.0000
     1.0000   1.0000   1.0000   1.0000   1.0000   1.0000   1.0000   1.0000
     1.0000   1.0000   1.0000   1.0000   1.0000   1.0000   1.0000   1.0000
     1.0000   1.0000   1.0000   1.0000   1.0000   1.0000   1.0000   1.0000
     1.0000   1.0000   1.0000   1.0000   1.0000   1.0000   1.0000   1.0000
     1.0000   1.0000   1.0000   1.0000   1.0000   1.0000   1.0000   1.0000
     1.0000   1.0000   1.0000   1.0000   1.0000   1.0000   1.0000   1.0000
     1.0000   1.0000   1.0000   1.0000   1.0000   1.0000   1.0000   1.0000
     1.0000   1.0000   1.0000   1.0000   1.0000   1.0000   1.0000   1.0000
     0.9998   0.9997   0.9995   0.9994   0.9985   0.9982   0.9979   0.9977
     0.9975   0.9972   0.9963   0.9956   0.9949   0.9943   0.9918   0.9901
     0.9881   0.9874   0.9863   0.9842   0.9836   0.9825   0.9809   0.9793
     0.9753   0.9720   0.9696   0.9679   0.9655   0.9555   0.9383   0.9156
     0.9080   0.8890   0.8752   0.8586   0.8449   0.8406   0.8298   0.8159
     0.8066   0.7710   0.7516   0.7455   0.7402   0.7306   0.7190   0.7123
     0.7054   0.6989   0.6899   0.6830   0.6757   0.6716   0.6668   0.6603
     0.3641   0.3504   0.2570   0.2462   0.1474   0.1251   0.1087   0.0644
     0.0167   0.0139   0.0093   0.0082   0.0039   0.0028   0.0014   0.0011
     0.0005   0.0004   0.0003   0.0002   0.0000   0.0000   0.0000   0.0000
     0.0000   0.0000   0.0000   0.0000   0.0000   0.0000   0.0000   0.0000
     0.0000   0.0000   0.0000   0.0000   0.0000   0.0000

     the Fermi energy is     3.7687 ev

!    total energy              =   -4398.87714791 Ry
     estimated scf accuracy    <          6.1E-09 Ry
     smearing contrib. (-TS)   =      -1.11569121 Ry
     internal energy E=F+TS    =   -4397.76145670 Ry

     The total energy is F=E-TS. E is the sum of the following terms:
     one-electron contribution =  -21346.23810893 Ry
     hartree contribution      =   10807.28690432 Ry
     xc contribution           =    -686.21858271 Ry
     ewald contribution        =    7094.04941278 Ry
     one-center paw contrib.   =    -266.64108217 Ry
      -> PAW hartree energy AE =       0.00000000 Ry
      -> PAW hartree energy PS =       0.00000000 Ry
      -> PAW xc energy AE      =       0.00000000 Ry
      -> PAW xc energy PS      =       0.00000000 Ry
      -> total E_H with PAW    =   10807.28690432 Ry
      -> total E_XC with PAW   =    -686.21858271 Ry

     convergence has been achieved in  47 iterations

     Writing all to output data dir /bsuhome/zayahcortright/scratch/pwscf.save/

     General routines

     Parallel routines

     PAW routines

   This run was terminated on:  15:14:49   3Jul2024

   JOB DONE.