     Program PWSCF v.7.2 starts on 21Jun2024 at 21: 2: 5

     Reading input from espresso.pwi
Warning: card &CELL ignored
Warning: card / ignored
Warning: card &FCP ignored
Warning: card / ignored
Warning: card &RISM ignored
Warning: card / ignored

     Current dimensions of program PWSCF are:
     Max number of different atomic species (ntypx) = 10
     Max number of k-points (npk) =  40000
     Max angular momentum in pseudopotentials (lmaxx) =  4
     file O.pbe-n-kjpaw_psl.0.1.UPF: wavefunction(s)  2P renormalized
     signal trapping enabled: kill the code with -SIGUSR1 to stop cleanly the simulation

     K-points division:     npool     =       2
     R & G space division:  proc/nbgrp/npool/nimage =      24
     Subspace diagonalization in iterative solution of the eigenvalue problem:
     one sub-group per band group will be used

     Using Slab Decomposition

     bravais-lattice index     =            0
     lattice parameter (alat)  =      14.8599  a.u.
     unit-cell volume          =    8305.1283 (a.u.)^3
     number of atoms/cell      =           49
     number of atomic types    =            4
     number of electrons       =       425.00
     number of Kohn-Sham states=          256
     kinetic-energy cutoff     =      60.0000  Ry
     charge density cutoff     =     480.0000  Ry
     scf convergence threshold =      1.0E-08
     mixing beta               =       0.1500
     number of iterations used =            8  local-TF  mixing
     Exchange-correlation= PBE
                           (   1   4   3   4   0   0   0)

     celldm(1)=  14.859904  celldm(2)=   0.000000  celldm(3)=   0.000000
     celldm(4)=   0.000000  celldm(5)=   0.000000  celldm(6)=   0.000000

     crystal axes: (cart. coord. in units of alat)
               a(1) = (   1.000000   0.000000   0.000000 )
               a(2) = (   0.000000   1.000000   0.000000 )
               a(3) = (   0.000000   0.000000   2.531036 )

     reciprocal axes: (cart. coord. in units 2 pi/alat)
               b(1) = (  1.000000  0.000000  0.000000 )
               b(2) = (  0.000000  1.000000  0.000000 )
               b(3) = (  0.000000  0.000000  0.395095 )

     PseudoPot. # 1 for Sr read from file:
     /bsuhome/zayahcortright/q-e/pseudo/Sr_pbe_v1.uspp.F.UPF
     MD5 check sum: 6b418c05fbe9db5448babca5e47b7a5b
     Pseudo is Ultrasoft + core correction, Zval = 10.0
     Generated by new atomic code, or converted to UPF format
     Using radial grid of  883 points,  6 beta functions with:
                l(1) =   0
                l(2) =   0
                l(3) =   1
                l(4) =   1
                l(5) =   2
                l(6) =   2
     Q(r) pseudized with  6 coefficients,  rinner =    1.400   1.400   1.400
                                                       1.400   1.400

     PseudoPot. # 2 for O  read from file:
     /bsuhome/zayahcortright/q-e/pseudo/O.pbe-n-kjpaw_psl.0.1.UPF
     MD5 check sum: 0234752ac141de4415c5fc33072bef88
     Pseudo is Projector augmented-wave + core cor, Zval =  6.0
     Generated using "atomic" code by A. Dal Corso  v.5.0.99 svn rev. 10869
     Shape of augmentation charge: BESSEL
     Using radial grid of 1095 points,  4 beta functions with:
                l(1) =   0
                l(2) =   0
                l(3) =   1
                l(4) =   1
     Q(r) pseudized with 0 coefficients

     PseudoPot. # 3 for Co read from file:
     /bsuhome/zayahcortright/q-e/pseudo/Co_pbe_v1.2.uspp.F.UPF
     MD5 check sum: 5f91765df6ddd3222702df6e7b74a16d
     Pseudo is Ultrasoft + core correction, Zval = 17.0
     Generated by new atomic code, or converted to UPF format
     Using radial grid of  863 points,  6 beta functions with:
                l(1) =   0
                l(2) =   0
                l(3) =   1
                l(4) =   1
                l(5) =   2
                l(6) =   2
     Q(r) pseudized with  8 coefficients,  rinner =    1.200   1.200   1.200
                                                       1.200   1.200

     PseudoPot. # 4 for H  read from file:
     /bsuhome/zayahcortright/q-e/pseudo/H.pbe-rrkjus_psl.1.0.0.UPF
     MD5 check sum: f52b6d4d1c606e5624b1dc7b2218f220
     Pseudo is Ultrasoft, Zval =  1.0
     Generated using "atomic" code by A. Dal Corso  v.5.1
     Using radial grid of  929 points,  2 beta functions with:
                l(1) =   0
                l(2) =   0
     Q(r) pseudized with 0 coefficients

     atomic species   valence    mass     pseudopotential
        Sr            10.00    87.62000     Sr( 1.00)
        O              6.00    15.99900     O ( 1.00)
        Co            17.00    58.93319     Co( 1.00)
        H              1.00     1.00800     H ( 1.00)

     No symmetry found

                                    s                        frac. trans.

      isym =  1     identity

 cryst.   s( 1) = (     1          0          0      )
                  (     0          1          0      )
                  (     0          0          1      )

 cart.    s( 1) = (  1.0000000  0.0000000  0.0000000 )
                  (  0.0000000  1.0000000  0.0000000 )
                  (  0.0000000  0.0000000  1.0000000 )

   Cartesian axes

     site n.     atom                  positions (alat units)
         1           Sr  tau(   1) = (   0.2508693   0.7491307   1.7574407  )
         2           O   tau(   2) = (   0.4985141   0.5014859   1.7715967  )
         3           Sr  tau(   3) = (   0.7482398   0.7454518   1.7648669  )
         4           Sr  tau(   4) = (   0.7441748   0.2558252   1.7667843  )
         5           Sr  tau(   5) = (   0.2508693   0.7491307   1.2696799  )
         6           Sr  tau(   6) = (   0.2508693   0.7491307   0.7632319  )
         7           Co  tau(   7) = (   0.4998914   0.5001086   1.0164559  )
         8           Co  tau(   8) = (   0.4936915   0.5063085   1.5135603  )
         9           O   tau(   9) = (   0.4988895   0.7610401   1.0164559  )
        10           O   tau(  10) = (   0.2389599   0.5011105   1.0164559  )
        11           O   tau(  11) = (   0.0070918   0.7374880   1.0164559  )
        12           O   tau(  12) = (   0.0088340   0.7405089   1.5135603  )
        13           O   tau(  13) = (   0.5066944   0.7415376   1.5135603  )
        14           O   tau(  14) = (   0.2584624   0.4933056   1.5135603  )
        15           O   tau(  15) = (   0.4985141   0.5014859   0.7773880  )
        16           O   tau(  16) = (   0.4985141   0.5014859   1.2555238  )
        17           Sr  tau(  17) = (   0.7482398   0.7454518   0.7706582  )
        18           Sr  tau(  18) = (   0.7482398   0.7454518   1.2622536  )
        19           Sr  tau(  19) = (   0.7441748   0.2558252   0.7725755  )
        20           Sr  tau(  20) = (   0.7441748   0.2558252   1.2603363  )
        21           O   tau(  21) = (   0.7322655   0.0078049   1.5135603  )
        22           O   tau(  22) = (   0.7558175   0.4996027   1.5135603  )
        23           O   tau(  23) = (   0.5003973   0.2441825   1.5135603  )
        24           O   tau(  24) = (   0.7527966   0.4978604   1.0164559  )
        25           O   tau(  25) = (   0.5021396   0.2472034   1.0164559  )
        26           O   tau(  26) = (   0.7517679   0.0000000   1.0164559  )
        27           O   tau(  27) = (   0.0114961   0.4948124   1.7455321  )
        28           O   tau(  28) = (   0.0048226   0.0077944   1.7715967  )
        29           Sr  tau(  29) = (   0.2545482   0.2517602   1.7648669  )
        30           O   tau(  30) = (   0.5048017   0.0015068   1.7786929  )
        31           Co  tau(  31) = (   0.0056869   0.5006215   1.0164559  )
        32           Co  tau(  32) = (   0.0065315   0.4997770   1.5135603  )
        33           Co  tau(  33) = (   0.0061999   0.0064171   1.0164559  )
        34           Co  tau(  34) = (   0.0000000   0.0126169   1.5135603  )
        35           O   tau(  35) = (   0.0114961   0.4948124   1.2815885  )
        36           O   tau(  36) = (   0.0114961   0.4948124   0.7513233  )
        37           O   tau(  37) = (   0.0051979   0.2673486   1.0164559  )
        38           O   tau(  38) = (   0.0130029   0.2478461   1.5135603  )
        39           O   tau(  39) = (   0.0048226   0.0077944   0.7773880  )
        40           O   tau(  40) = (   0.0048226   0.0077944   1.2555238  )
        41           Sr  tau(  41) = (   0.2545482   0.2517602   0.7706582  )
        42           Sr  tau(  42) = (   0.2545482   0.2517602   1.2622536  )
        43           Co  tau(  43) = (   0.4989925   0.0073160   1.5135603  )
        44           Co  tau(  44) = (   0.4998370   0.0064714   1.0164559  )
        45           O   tau(  45) = (   0.5048017   0.0015068   0.7844841  )
        46           O   tau(  46) = (   0.5048017   0.0015068   1.2484277  )
        47           O   tau(  47) = (   0.2621260   0.0059111   1.5135603  )
        48           O   tau(  48) = (   0.2591051   0.0041689   1.0164559  )
        49           H   tau(  49) = (   0.7108228   0.7108228   2.1602013  )

   Crystallographic axes

     site n.     atom                  positions (cryst. coord.)
         1           Sr  tau(   1) = (  0.2508693  0.7491307  0.6943562  )
         2           O   tau(   2) = (  0.4985141  0.5014859  0.6999492  )
         3           Sr  tau(   3) = (  0.7482398  0.7454518  0.6972903  )
         4           Sr  tau(   4) = (  0.7441748  0.2558252  0.6980478  )
         5           Sr  tau(   5) = (  0.2508693  0.7491307  0.5016443  )
         6           Sr  tau(   6) = (  0.2508693  0.7491307  0.3015492  )
         7           Co  tau(   7) = (  0.4998914  0.5001086  0.4015968  )
         8           Co  tau(   8) = (  0.4936915  0.5063085  0.5980003  )
         9           O   tau(   9) = (  0.4988895  0.7610401  0.4015968  )
        10           O   tau(  10) = (  0.2389599  0.5011105  0.4015968  )
        11           O   tau(  11) = (  0.0070918  0.7374880  0.4015968  )
        12           O   tau(  12) = (  0.0088340  0.7405089  0.5980003  )
        13           O   tau(  13) = (  0.5066944  0.7415376  0.5980003  )
        14           O   tau(  14) = (  0.2584624  0.4933056  0.5980003  )
        15           O   tau(  15) = (  0.4985141  0.5014859  0.3071422  )
        16           O   tau(  16) = (  0.4985141  0.5014859  0.4960513  )
        17           Sr  tau(  17) = (  0.7482398  0.7454518  0.3044833  )
        18           Sr  tau(  18) = (  0.7482398  0.7454518  0.4987103  )
        19           Sr  tau(  19) = (  0.7441748  0.2558252  0.3052408  )
        20           Sr  tau(  20) = (  0.7441748  0.2558252  0.4979527  )
        21           O   tau(  21) = (  0.7322655  0.0078049  0.5980003  )
        22           O   tau(  22) = (  0.7558175  0.4996027  0.5980003  )
        23           O   tau(  23) = (  0.5003973  0.2441825  0.5980003  )
        24           O   tau(  24) = (  0.7527966  0.4978604  0.4015968  )
        25           O   tau(  25) = (  0.5021396  0.2472034  0.4015968  )
        26           O   tau(  26) = (  0.7517679  0.0000000  0.4015968  )
        27           O   tau(  27) = (  0.0114961  0.4948124  0.6896512  )
        28           O   tau(  28) = (  0.0048226  0.0077944  0.6999492  )
        29           Sr  tau(  29) = (  0.2545482  0.2517602  0.6972903  )
        30           O   tau(  30) = (  0.5048017  0.0015068  0.7027529  )
        31           Co  tau(  31) = (  0.0056869  0.5006215  0.4015968  )
        32           Co  tau(  32) = (  0.0065315  0.4997770  0.5980003  )
        33           Co  tau(  33) = (  0.0061999  0.0064171  0.4015968  )
        34           Co  tau(  34) = (  0.0000000  0.0126169  0.5980003  )
        35           O   tau(  35) = (  0.0114961  0.4948124  0.5063494  )
        36           O   tau(  36) = (  0.0114961  0.4948124  0.2968442  )
        37           O   tau(  37) = (  0.0051979  0.2673486  0.4015968  )
        38           O   tau(  38) = (  0.0130029  0.2478461  0.5980003  )
        39           O   tau(  39) = (  0.0048226  0.0077944  0.3071422  )
        40           O   tau(  40) = (  0.0048226  0.0077944  0.4960513  )
        41           Sr  tau(  41) = (  0.2545482  0.2517602  0.3044833  )
        42           Sr  tau(  42) = (  0.2545482  0.2517602  0.4987103  )
        43           Co  tau(  43) = (  0.4989925  0.0073160  0.5980003  )
        44           Co  tau(  44) = (  0.4998370  0.0064714  0.4015968  )
        45           O   tau(  45) = (  0.5048017  0.0015068  0.3099459  )
        46           O   tau(  46) = (  0.5048017  0.0015068  0.4932477  )
        47           O   tau(  47) = (  0.2621260  0.0059111  0.5980003  )
        48           O   tau(  48) = (  0.2591051  0.0041689  0.4015968  )
        49           H   tau(  49) = (  0.7108228  0.7108228  0.8534850  )

     number of k points=    10  Gaussian smearing, width (Ry)=  0.0700
                       cart. coord. in units 2pi/alat
        k(    1) = (   0.0000000   0.0000000   0.0000000), wk =   0.1250000
        k(    2) = (   0.0000000   0.2500000   0.0000000), wk =   0.2500000
        k(    3) = (   0.0000000  -0.5000000   0.0000000), wk =   0.1250000
        k(    4) = (   0.2500000   0.2500000   0.0000000), wk =   0.2500000
        k(    5) = (   0.2500000  -0.5000000   0.0000000), wk =   0.2500000
        k(    6) = (  -0.5000000  -0.5000000   0.0000000), wk =   0.1250000
        k(    7) = (   0.2500000   0.0000000   0.0000000), wk =   0.2500000
        k(    8) = (  -0.5000000   0.0000000   0.0000000), wk =   0.1250000
        k(    9) = (  -0.2500000   0.2500000   0.0000000), wk =   0.2500000
        k(   10) = (  -0.5000000   0.2500000   0.0000000), wk =   0.2500000

                       cryst. coord.
        k(    1) = (   0.0000000   0.0000000   0.0000000), wk =   0.1250000
        k(    2) = (   0.0000000   0.2500000   0.0000000), wk =   0.2500000
        k(    3) = (   0.0000000  -0.5000000   0.0000000), wk =   0.1250000
        k(    4) = (   0.2500000   0.2500000   0.0000000), wk =   0.2500000
        k(    5) = (   0.2500000  -0.5000000   0.0000000), wk =   0.2500000
        k(    6) = (  -0.5000000  -0.5000000   0.0000000), wk =   0.1250000
        k(    7) = (   0.2500000   0.0000000   0.0000000), wk =   0.2500000
        k(    8) = (  -0.5000000   0.0000000   0.0000000), wk =   0.1250000
        k(    9) = (  -0.2500000   0.2500000   0.0000000), wk =   0.2500000
        k(   10) = (  -0.5000000   0.2500000   0.0000000), wk =   0.2500000

     Check: negative core charge=   -0.000004

     Initial potential from superposition of free atoms

     starting charge     416.5961, renormalised to     425.0000

     negative rho (up, down):  7.826E-01 0.000E+00
     Starting wfcs are  373 randomized atomic wfcs
     Checking if some PAW data can be deallocated...

     Self-consistent Calculation

     iteration #  1     ecut=    60.00 Ry     beta= 0.15
     Davidson diagonalization with overlap

     ethr =  1.00E-02,  avg # of iterations =  2.0

     negative rho (up, down):  7.719E-01 0.000E+00

     total energy              =   -4404.77355035 Ry
     estimated scf accuracy    <      42.21348750 Ry

[...]

     c_bands:  2 eigenvalues not converged
     ethr =  9.67E-05,  avg # of iterations =  9.0

[...]

     c_bands:  1 eigenvalues not converged
     ethr =  2.92E-07,  avg # of iterations =  9.7

[...]

     total energy              =   -4399.92723480 Ry
     estimated scf accuracy    <       0.00000001 Ry

     iteration # 53     ecut=    60.00 Ry     beta= 0.15
     Davidson diagonalization with overlap

     ethr =  2.45E-12,  avg # of iterations =  3.8

     negative rho (up, down):  7.925E-01 0.000E+00

     End of self-consistent calculation

          k = 0.0000 0.0000 0.0000 ( 65197 PWs)   bands (ev):

   -92.7479 -92.6964 -92.6017 -92.5545 -92.4973 -92.4545 -92.4367 -92.3142
   -56.1013 -56.0831 -55.9590 -55.9485 -55.9415 -55.9353 -55.9001 -55.8709
   -55.8553 -55.8541 -55.8472 -55.8051 -55.7854 -55.7478 -55.7282 -55.6969
   -55.6900 -55.6424 -55.6404 -55.6396 -55.6311 -55.5891 -55.5671 -55.4807
   -31.3223 -31.3033 -31.1618 -31.0756 -31.0633 -30.9595 -30.8882 -30.7780
   -29.8941 -29.8507 -29.8253 -29.7187 -15.1279 -15.0857 -15.0029 -14.8736
   -14.6800 -14.5583 -14.2658 -14.2382 -14.2148 -14.1686 -14.1257 -14.1181
   -14.1043 -14.0817 -14.0568 -14.0137 -13.9751 -13.8242 -13.6473 -13.6115
   -13.5832 -13.5495 -13.5350 -13.4794 -13.4463 -13.3669 -13.2957 -13.1661
   -13.1549 -13.1428 -13.1200 -13.1026 -13.0842 -13.0475 -13.0345 -13.0169
   -12.9952 -12.9687 -12.9470 -12.9126 -12.8845 -12.8599 -12.8186 -12.7734
   -12.7574 -12.7159 -12.7022 -12.6516 -12.3878 -12.2421 -12.0719 -11.9997
   -11.9076 -11.8335 -11.8224 -11.7999 -11.7820 -11.7188 -11.7017 -11.6663
   -11.6365 -11.5273 -11.4468 -11.4432  -2.9883  -2.7560  -2.5264  -2.3796
    -2.3165  -2.1745  -1.8674  -1.8530  -1.8334  -1.7493  -1.7291  -1.6616
    -1.6447  -1.6039  -1.5606  -1.3781  -1.1541  -1.1235  -0.9774  -0.9629
    -0.9164  -0.8973  -0.8524  -0.8359  -0.7802  -0.7536  -0.6794  -0.6693
    -0.5931  -0.4615  -0.4484  -0.4187  -0.3384  -0.3163  -0.3129  -0.2480
    -0.1737  -0.1260  -0.0757  -0.0523   0.0151   0.0833   0.1336   0.1545
     0.1662   0.4268   0.4388   0.6133   0.6772   0.7437   0.7862   0.8791
     0.8911   0.9077   0.9757   1.0033   1.0367   1.0956   1.2273   1.2865
     1.3063   1.3257   1.3415   1.4064   1.4747   1.5850   1.5949   1.6576
     1.6698   1.7137   1.7290   1.7391   1.7962   1.8498   1.8667   1.8990
     1.9283   1.9796   2.1116   2.1991   2.2392   2.2541   2.4062   2.4211
     2.4653   2.4668   2.5756   2.6103   2.6339   2.6551   2.6713   2.7161
     2.7657   2.8617   2.8933   2.9049   2.9123   2.9791   2.9827   3.0073
     3.0142   3.0229   3.0350   3.0430   3.0557   3.0619   3.0733   3.0821
     3.0898   3.1101   3.1321   3.1361   3.1486   3.1793   3.2898   3.3847
     4.0638   4.3818   4.7252   4.8436   4.9946   5.8674   5.9118   5.9397
     5.9603   6.2688   6.3146   6.4573   6.4674   6.7526   6.9797   7.0709
     7.2178   7.2743   7.5808   7.6078   7.6270   7.6504   7.6898   7.8747
     7.9660   8.0827   8.1632   8.1960   8.2869   8.5975   8.8416   8.8673

     occupation numbers
     1.0000   1.0000   1.0000   1.0000   1.0000   1.0000   1.0000   1.0000
     1.0000   1.0000   1.0000   1.0000   1.0000   1.0000   1.0000   1.0000
     1.0000   1.0000   1.0000   1.0000   1.0000   1.0000   1.0000   1.0000
     1.0000   1.0000   1.0000   1.0000   1.0000   1.0000   1.0000   1.0000
     1.0000   1.0000   1.0000   1.0000   1.0000   1.0000   1.0000   1.0000
     1.0000   1.0000   1.0000   1.0000   1.0000   1.0000   1.0000   1.0000
     1.0000   1.0000   1.0000   1.0000   1.0000   1.0000   1.0000   1.0000
     1.0000   1.0000   1.0000   1.0000   1.0000   1.0000   1.0000   1.0000
     1.0000   1.0000   1.0000   1.0000   1.0000   1.0000   1.0000   1.0000
     1.0000   1.0000   1.0000   1.0000   1.0000   1.0000   1.0000   1.0000
     1.0000   1.0000   1.0000   1.0000   1.0000   1.0000   1.0000   1.0000
     1.0000   1.0000   1.0000   1.0000   1.0000   1.0000   1.0000   1.0000
     1.0000   1.0000   1.0000   1.0000   1.0000   1.0000   1.0000   1.0000
     1.0000   1.0000   1.0000   1.0000   1.0000   1.0000   1.0000   1.0000
     1.0000   1.0000   1.0000   1.0000   1.0000   1.0000   1.0000   1.0000
     1.0000   1.0000   1.0000   1.0000   1.0000   1.0000   1.0000   1.0000
     1.0000   1.0000   1.0000   1.0000   1.0000   1.0000   1.0000   1.0000
     1.0000   1.0000   1.0000   1.0000   1.0000   1.0000   1.0000   1.0000
     1.0000   1.0000   1.0000   1.0000   1.0000   1.0000   1.0000   1.0000
     1.0000   1.0000   1.0000   1.0000   0.9999   0.9999   0.9999   0.9998
     0.9998   0.9998   0.9997   0.9996   0.9996   0.9994   0.9988   0.9985
     0.9983   0.9981   0.9980   0.9973   0.9963   0.9941   0.9938   0.9920
     0.9916   0.9900   0.9894   0.9889   0.9862   0.9832   0.9821   0.9798
     0.9776   0.9733   0.9586   0.9457   0.9389   0.9362   0.9028   0.8989
     0.8868   0.8864   0.8522   0.8400   0.8313   0.8233   0.8169   0.7988
     0.7775   0.7327   0.7171   0.7112   0.7075   0.6725   0.6706   0.6572
     0.6535   0.6487   0.6420   0.6376   0.6304   0.6270   0.6205   0.6156
     0.6112   0.5996   0.5869   0.5846   0.5773   0.5595   0.4942   0.4382
     0.1222   0.0509   0.0159   0.0101   0.0054   0.0001   0.0000   0.0000
     0.0000   0.0000   0.0000   0.0000   0.0000   0.0000   0.0000   0.0000
     0.0000   0.0000   0.0000   0.0000   0.0000   0.0000   0.0000   0.0000
     0.0000   0.0000   0.0000   0.0000   0.0000   0.0000   0.0000   0.0000

[...]

          k =-0.5000-0.5000 0.0000 ( 65132 PWs)   bands (ev):

[...]

          k = 0.2500 0.0000 0.0000 ( 65257 PWs)   bands (ev):

[...]

          k =-0.5000 0.2500 0.0000 ( 65138 PWs)   bands (ev):

   -92.7479 -92.6964 -92.6017 -92.5545 -92.4973 -92.4545 -92.4367 -92.3142
   -56.1013 -56.0831 -55.9590 -55.9485 -55.9415 -55.9353 -55.9001 -55.8709
   -55.8553 -55.8541 -55.8472 -55.8051 -55.7854 -55.7478 -55.7282 -55.6969
   -55.6900 -55.6424 -55.6404 -55.6396 -55.6311 -55.5891 -55.5671 -55.4807
   -31.3181 -31.3072 -31.1613 -31.0765 -31.0628 -30.9588 -30.8890 -30.7785
   -29.8915 -29.8524 -29.8251 -29.7199 -15.0293 -14.9854 -14.9063 -14.8016
   -14.7631 -14.6380 -14.5509 -14.4125 -14.1109 -14.0790 -14.0676 -14.0260
   -13.9996 -13.9793 -13.9427 -13.9251 -13.9124 -13.8693 -13.8491 -13.7511
   -13.6834 -13.6351 -13.6308 -13.6164 -13.5146 -13.4912 -13.3945 -13.3361
   -13.2456 -13.2082 -13.1116 -13.0725 -13.0612 -13.0361 -13.0118 -12.9893
   -12.9815 -12.9546 -12.8559 -12.8332 -12.8036 -12.7555 -12.7242 -12.6699
   -12.6624 -12.6516 -12.5843 -12.4588 -12.3676 -12.3073 -12.2194 -12.1976
   -11.8174 -11.8048 -11.7903 -11.7782 -11.7570 -11.7265 -11.6458 -11.6384
   -11.6134 -11.5808 -11.5524 -11.5434  -2.4858  -2.4440  -2.2962  -2.2533
    -2.0930  -2.0174  -1.8754  -1.7383  -1.6825  -1.6553  -1.6166  -1.5777
    -1.4972  -1.3813  -1.3246  -1.3009  -1.2747  -1.1990  -1.1697  -1.1314
    -1.1140  -1.0539  -1.0235  -0.9854  -0.9500  -0.9211  -0.8630  -0.8356
    -0.7932  -0.7593  -0.6554  -0.6276  -0.5399  -0.4787  -0.4486  -0.3905
    -0.3065  -0.2710  -0.1716  -0.1295  -0.0753  -0.0214   0.0002   0.0759
     0.0994   0.1314   0.1848   0.2264   0.5390   0.6065   0.6602   0.6741
     0.9727   1.0268   1.1035   1.1267   1.3044   1.3403   1.3780   1.3898
     1.4081   1.4259   1.4948   1.5409   1.5813   1.6087   1.7375   1.7747
     1.7977   1.8094   1.8480   1.8740   1.8896   1.9026   1.9211   1.9455
     1.9896   2.0053   2.0398   2.0634   2.0949   2.1517   2.2728   2.3745
     2.4000   2.4717   2.5067   2.5663   2.6044   2.6116   2.6498   2.6814
     2.7025   2.7418   2.7889   2.8374   2.8482   2.8567   2.8759   2.8953
     2.9071   2.9215   2.9396   2.9579   2.9683   2.9793   2.9869   2.9964
     3.0083   3.5370   3.5885   3.7272   3.7504   4.0224   4.1010   4.1557
     4.3652   4.7398   4.8396   4.9931   5.0430   5.3595   5.3884   5.5557
     5.6070   5.7075   5.7429   6.2022   6.3664   6.4707   6.6350   7.0794
     7.4653   7.5542   7.6832   7.7603   7.8512   7.9707   7.9951   8.2425
     8.3292   8.3923   8.4571   8.5203   8.5397   8.6117   8.6364   8.7156

     occupation numbers
     1.0000   1.0000   1.0000   1.0000   1.0000   1.0000   1.0000   1.0000
     1.0000   1.0000   1.0000   1.0000   1.0000   1.0000   1.0000   1.0000
     1.0000   1.0000   1.0000   1.0000   1.0000   1.0000   1.0000   1.0000
     1.0000   1.0000   1.0000   1.0000   1.0000   1.0000   1.0000   1.0000
     1.0000   1.0000   1.0000   1.0000   1.0000   1.0000   1.0000   1.0000
     1.0000   1.0000   1.0000   1.0000   1.0000   1.0000   1.0000   1.0000
     1.0000   1.0000   1.0000   1.0000   1.0000   1.0000   1.0000   1.0000
     1.0000   1.0000   1.0000   1.0000   1.0000   1.0000   1.0000   1.0000
     1.0000   1.0000   1.0000   1.0000   1.0000   1.0000   1.0000   1.0000
     1.0000   1.0000   1.0000   1.0000   1.0000   1.0000   1.0000   1.0000
     1.0000   1.0000   1.0000   1.0000   1.0000   1.0000   1.0000   1.0000
     1.0000   1.0000   1.0000   1.0000   1.0000   1.0000   1.0000   1.0000
     1.0000   1.0000   1.0000   1.0000   1.0000   1.0000   1.0000   1.0000
     1.0000   1.0000   1.0000   1.0000   1.0000   1.0000   1.0000   1.0000
     1.0000   1.0000   1.0000   1.0000   1.0000   1.0000   1.0000   1.0000
     1.0000   1.0000   1.0000   1.0000   1.0000   1.0000   1.0000   1.0000
     1.0000   1.0000   1.0000   1.0000   1.0000   1.0000   1.0000   1.0000
     1.0000   1.0000   1.0000   1.0000   1.0000   1.0000   1.0000   1.0000
     1.0000   1.0000   1.0000   1.0000   1.0000   1.0000   1.0000   1.0000
     1.0000   1.0000   1.0000   1.0000   1.0000   1.0000   0.9999   0.9999
     0.9997   0.9996   0.9994   0.9993   0.9983   0.9980   0.9976   0.9975
     0.9973   0.9970   0.9960   0.9951   0.9942   0.9935   0.9890   0.9873
     0.9861   0.9855   0.9833   0.9816   0.9805   0.9796   0.9782   0.9762
     0.9723   0.9708   0.9672   0.9646   0.9608   0.9531   0.9326   0.9106
     0.9043   0.8850   0.8746   0.8554   0.8421   0.8395   0.8253   0.8130
     0.8044   0.7879   0.7671   0.7445   0.7393   0.7352   0.7257   0.7161
     0.7101   0.7027   0.6934   0.6838   0.6783   0.6724   0.6683   0.6632
     0.6567   0.3514   0.3234   0.2533   0.2424   0.1351   0.1114   0.0967
     0.0535   0.0151   0.0103   0.0055   0.0044   0.0010   0.0009   0.0004
     0.0003   0.0002   0.0001   0.0000   0.0000   0.0000   0.0000   0.0000
     0.0000   0.0000   0.0000   0.0000   0.0000   0.0000   0.0000   0.0000
     0.0000   0.0000   0.0000   0.0000   0.0000   0.0000   0.0000   0.0000

     the Fermi energy is     3.2800 ev

!    total energy              =   -4399.92723479 Ry
     estimated scf accuracy    <          3.5E-09 Ry
     smearing contrib. (-TS)   =      -1.14715333 Ry
     internal energy E=F+TS    =   -4398.78008146 Ry

     The total energy is F=E-TS. E is the sum of the following terms:
     one-electron contribution =  -21252.10114777 Ry
     hartree contribution      =   10753.52480983 Ry
     xc contribution           =    -686.73516840 Ry
     ewald contribution        =    7053.17649277 Ry
     one-center paw contrib.   =    -266.64506789 Ry
      -> PAW hartree energy AE =      25.13608198 Ry
      -> PAW hartree energy PS =     -25.02029216 Ry
      -> PAW xc energy AE      =     -16.51365145 Ry
      -> PAW xc energy PS      =       6.87293651 Ry
      -> total E_H with PAW    =   10753.64059965 Ry
      -> total E_XC with PAW   =    -696.37588333 Ry

     convergence has been achieved in  53 iterations

     Writing all to output data dir /bsuhome/zayahcortright/scratch/pwscf.save/

     General routines

     Parallel routines

     PAW routines

   This run was terminated on:  21:15: 6  21Jun2024

   JOB DONE.