     Program PWSCF v.7.2 starts on 21Jun2024 at 16:24:24

     Reading input from espresso.pwi
Warning: card &CELL ignored
Warning: card / ignored
Warning: card &FCP ignored
Warning: card / ignored
Warning: card &RISM ignored
Warning: card / ignored

     Current dimensions of program PWSCF are:
     Max number of different atomic species (ntypx) = 10
     Max number of k-points (npk) =  40000
     Max angular momentum in pseudopotentials (lmaxx) =  4
     file O.pbe-n-kjpaw_psl.0.1.UPF: wavefunction(s)  2P renormalized
     signal trapping enabled: kill the code with -SIGUSR1 to stop cleanly the simulation

     K-points division:     npool     =       2
     R & G space division:  proc/nbgrp/npool/nimage =      24
     Subspace diagonalization in iterative solution of the eigenvalue problem:
     one sub-group per band group will be used

     Using Slab Decomposition

     bravais-lattice index     =            0
     lattice parameter (alat)  =      14.8599  a.u.
     unit-cell volume          =    8305.1283 (a.u.)^3
     number of atoms/cell      =           49
     number of atomic types    =            3
     number of electrons       =       430.00
     number of Kohn-Sham states=          258
     kinetic-energy cutoff     =      60.0000  Ry
     charge density cutoff     =     480.0000  Ry
     scf convergence threshold =      1.0E-08
     mixing beta               =       0.1500
     number of iterations used =            8  local-TF  mixing
     Exchange-correlation= SLA  PW   PBE  PBE
                           (   1   4   3   4   0   0   0)

     celldm(1)=  14.859904  celldm(2)=   0.000000  celldm(3)=   0.000000
     celldm(4)=   0.000000  celldm(5)=   0.000000  celldm(6)=   0.000000

     crystal axes: (cart. coord. in units of alat)
               a(1) = (   1.000000   0.000000   0.000000 )
               a(2) = (   0.000000   1.000000   0.000000 )
               a(3) = (   0.000000   0.000000   2.531036 )

     reciprocal axes: (cart. coord. in units 2 pi/alat)
               b(1) = (  1.000000  0.000000  0.000000 )
               b(2) = (  0.000000  1.000000  0.000000 )
               b(3) = (  0.000000  0.000000  0.395095 )

     PseudoPot. # 1 for Sr read from file:
     /bsuhome/zayahcortright/q-e/pseudo/Sr_pbe_v1.uspp.F.UPF
     MD5 check sum: 6b418c05fbe9db5448babca5e47b7a5b
     Pseudo is Ultrasoft + core correction, Zval = 10.0
     Generated by new atomic code, or converted to UPF format
     Using radial grid of  883 points,  6 beta functions with:
                l(1) =   0
                l(2) =   0
                l(3) =   1
                l(4) =   1
                l(5) =   2
                l(6) =   2
     Q(r) pseudized with  6 coefficients,  rinner =    1.400   1.400   1.400
                                                       1.400   1.400

     PseudoPot. # 2 for O  read from file:
     /bsuhome/zayahcortright/q-e/pseudo/O.pbe-n-kjpaw_psl.0.1.UPF
     MD5 check sum: 0234752ac141de4415c5fc33072bef88
     Pseudo is Projector augmented-wave + core cor, Zval =  6.0
     Generated using "atomic" code by A. Dal Corso  v.5.0.99 svn rev. 10869
     Shape of augmentation charge: BESSEL
     Using radial grid of 1095 points,  4 beta functions with:
                l(1) =   0
                l(2) =   0
                l(3) =   1
                l(4) =   1
     Q(r) pseudized with 0 coefficients

     PseudoPot. # 3 for Co read from file:
     /bsuhome/zayahcortright/q-e/pseudo/Co_pbe_v1.2.uspp.F.UPF
     MD5 check sum: 5f91765df6ddd3222702df6e7b74a16d
     Pseudo is Ultrasoft + core correction, Zval = 17.0
     Generated by new atomic code, or converted to UPF format
     Using radial grid of  863 points,  6 beta functions with:
                l(1) =   0
                l(2) =   0
                l(3) =   1
                l(4) =   1
                l(5) =   2
                l(6) =   2
     Q(r) pseudized with  8 coefficients,  rinner =    1.200   1.200   1.200
                                                       1.200   1.200

     atomic species   valence    mass     pseudopotential
        Sr            10.00    87.62000     Sr( 1.00)
        O              6.00    15.99900     O ( 1.00)
        Co            17.00    58.93319     Co( 1.00)

     No symmetry found

                                    s                        frac. trans.

      isym =  1     identity

 cryst.   s( 1) = (     1          0          0      )
                  (     0          1          0      )
                  (     0          0          1      )

 cart.    s( 1) = (  1.0000000  0.0000000  0.0000000 )
                  (  0.0000000  1.0000000  0.0000000 )
                  (  0.0000000  0.0000000  1.0000000 )

   Cartesian axes

     site n.     atom                  positions (alat units)
         1           Sr  tau(   1) = (   0.2508693   0.7491307   1.7574407  )
         2           O   tau(   2) = (   0.4985141   0.5014859   1.7715967  )
         3           Sr  tau(   3) = (   0.7482398   0.7454518   1.7648669  )
         4           Sr  tau(   4) = (   0.7441748   0.2558252   1.7667843  )
         5           Sr  tau(   5) = (   0.2508693   0.7491307   1.2696799  )
         6           Sr  tau(   6) = (   0.2508693   0.7491307   0.7632319  )
         7           Co  tau(   7) = (   0.4998914   0.5001086   1.0164559  )
         8           Co  tau(   8) = (   0.4936915   0.5063085   1.5135603  )
         9           O   tau(   9) = (   0.4988895   0.7610401   1.0164559  )
        10           O   tau(  10) = (   0.2389599   0.5011105   1.0164559  )
        11           O   tau(  11) = (   0.0070918   0.7374880   1.0164559  )
        12           O   tau(  12) = (   0.0088340   0.7405089   1.5135603  )
        13           O   tau(  13) = (   0.5066944   0.7415376   1.5135603  )
        14           O   tau(  14) = (   0.2584624   0.4933056   1.5135603  )
        15           O   tau(  15) = (   0.4985141   0.5014859   0.7773880  )
        16           O   tau(  16) = (   0.4985141   0.5014859   1.2555238  )
        17           Sr  tau(  17) = (   0.7482398   0.7454518   0.7706582  )
        18           Sr  tau(  18) = (   0.7482398   0.7454518   1.2622536  )
        19           Sr  tau(  19) = (   0.7441748   0.2558252   0.7725755  )
        20           Sr  tau(  20) = (   0.7441748   0.2558252   1.2603363  )
        21           O   tau(  21) = (   0.7322655   0.0078049   1.5135603  )
        22           O   tau(  22) = (   0.7558175   0.4996027   1.5135603  )
        23           O   tau(  23) = (   0.5003973   0.2441825   1.5135603  )
        24           O   tau(  24) = (   0.7527966   0.4978604   1.0164559  )
        25           O   tau(  25) = (   0.5021396   0.2472034   1.0164559  )
        26           O   tau(  26) = (   0.7517679   0.0000000   1.0164559  )
        27           O   tau(  27) = (   0.0114961   0.4948124   1.7455321  )
        28           O   tau(  28) = (   0.0048226   0.0077944   1.7715967  )
        29           Sr  tau(  29) = (   0.2545482   0.2517602   1.7648669  )
        30           O   tau(  30) = (   0.5048017   0.0015068   1.7786929  )
        31           Co  tau(  31) = (   0.0056869   0.5006215   1.0164559  )
        32           Co  tau(  32) = (   0.0065315   0.4997770   1.5135603  )
        33           Co  tau(  33) = (   0.0061999   0.0064171   1.0164559  )
        34           Co  tau(  34) = (   0.0000000   0.0126169   1.5135603  )
        35           O   tau(  35) = (   0.0114961   0.4948124   1.2815885  )
        36           O   tau(  36) = (   0.0114961   0.4948124   0.7513233  )
        37           O   tau(  37) = (   0.0051979   0.2673486   1.0164559  )
        38           O   tau(  38) = (   0.0130029   0.2478461   1.5135603  )
        39           O   tau(  39) = (   0.0048226   0.0077944   0.7773880  )
        40           O   tau(  40) = (   0.0048226   0.0077944   1.2555238  )
        41           Sr  tau(  41) = (   0.2545482   0.2517602   0.7706582  )
        42           Sr  tau(  42) = (   0.2545482   0.2517602   1.2622536  )
        43           Co  tau(  43) = (   0.4989925   0.0073160   1.5135603  )
        44           Co  tau(  44) = (   0.4998370   0.0064714   1.0164559  )
        45           O   tau(  45) = (   0.5048017   0.0015068   0.7844841  )
        46           O   tau(  46) = (   0.5048017   0.0015068   1.2484277  )
        47           O   tau(  47) = (   0.2621260   0.0059111   1.5135603  )
        48           O   tau(  48) = (   0.2591051   0.0041689   1.0164559  )
        49           O   tau(  49) = (   0.1421646   0.2843291   2.1602013  )

   Crystallographic axes

     site n.     atom                  positions (cryst. coord.)
         1           Sr  tau(   1) = (  0.2508693  0.7491307  0.6943562  )
         2           O   tau(   2) = (  0.4985141  0.5014859  0.6999492  )
         3           Sr  tau(   3) = (  0.7482398  0.7454518  0.6972903  )
         4           Sr  tau(   4) = (  0.7441748  0.2558252  0.6980478  )
         5           Sr  tau(   5) = (  0.2508693  0.7491307  0.5016443  )
         6           Sr  tau(   6) = (  0.2508693  0.7491307  0.3015492  )
         7           Co  tau(   7) = (  0.4998914  0.5001086  0.4015968  )
         8           Co  tau(   8) = (  0.4936915  0.5063085  0.5980003  )
         9           O   tau(   9) = (  0.4988895  0.7610401  0.4015968  )
        10           O   tau(  10) = (  0.2389599  0.5011105  0.4015968  )
        11           O   tau(  11) = (  0.0070918  0.7374880  0.4015968  )
        12           O   tau(  12) = (  0.0088340  0.7405089  0.5980003  )
        13           O   tau(  13) = (  0.5066944  0.7415376  0.5980003  )
        14           O   tau(  14) = (  0.2584624  0.4933056  0.5980003  )
        15           O   tau(  15) = (  0.4985141  0.5014859  0.3071422  )
        16           O   tau(  16) = (  0.4985141  0.5014859  0.4960513  )
        17           Sr  tau(  17) = (  0.7482398  0.7454518  0.3044833  )
        18           Sr  tau(  18) = (  0.7482398  0.7454518  0.4987103  )
        19           Sr  tau(  19) = (  0.7441748  0.2558252  0.3052408  )
        20           Sr  tau(  20) = (  0.7441748  0.2558252  0.4979527  )
        21           O   tau(  21) = (  0.7322655  0.0078049  0.5980003  )
        22           O   tau(  22) = (  0.7558175  0.4996027  0.5980003  )
        23           O   tau(  23) = (  0.5003973  0.2441825  0.5980003  )
        24           O   tau(  24) = (  0.7527966  0.4978604  0.4015968  )
        25           O   tau(  25) = (  0.5021396  0.2472034  0.4015968  )
        26           O   tau(  26) = (  0.7517679  0.0000000  0.4015968  )
        27           O   tau(  27) = (  0.0114961  0.4948124  0.6896512  )
        28           O   tau(  28) = (  0.0048226  0.0077944  0.6999492  )
        29           Sr  tau(  29) = (  0.2545482  0.2517602  0.6972903  )
        30           O   tau(  30) = (  0.5048017  0.0015068  0.7027529  )
        31           Co  tau(  31) = (  0.0056869  0.5006215  0.4015968  )
        32           Co  tau(  32) = (  0.0065315  0.4997770  0.5980003  )
        33           Co  tau(  33) = (  0.0061999  0.0064171  0.4015968  )
        34           Co  tau(  34) = (  0.0000000  0.0126169  0.5980003  )
        35           O   tau(  35) = (  0.0114961  0.4948124  0.5063494  )
        36           O   tau(  36) = (  0.0114961  0.4948124  0.2968442  )
        37           O   tau(  37) = (  0.0051979  0.2673486  0.4015968  )
        38           O   tau(  38) = (  0.0130029  0.2478461  0.5980003  )
        39           O   tau(  39) = (  0.0048226  0.0077944  0.3071422  )
        40           O   tau(  40) = (  0.0048226  0.0077944  0.4960513  )
        41           Sr  tau(  41) = (  0.2545482  0.2517602  0.3044833  )
        42           Sr  tau(  42) = (  0.2545482  0.2517602  0.4987103  )
        43           Co  tau(  43) = (  0.4989925  0.0073160  0.5980003  )
        44           Co  tau(  44) = (  0.4998370  0.0064714  0.4015968  )
        45           O   tau(  45) = (  0.5048017  0.0015068  0.3099459  )
        46           O   tau(  46) = (  0.5048017  0.0015068  0.4932477  )
        47           O   tau(  47) = (  0.2621260  0.0059111  0.5980003  )
        48           O   tau(  48) = (  0.2591051  0.0041689  0.4015968  )
        49           O   tau(  49) = (  0.1421646  0.2843291  0.8534850  )

     number of k points=    10  Gaussian smearing, width (Ry)=  0.0700
                       cart. coord. in units 2pi/alat
        k(    1) = (   0.0000000   0.0000000   0.0000000), wk =   0.1250000
        k(    2) = (   0.0000000   0.2500000   0.0000000), wk =   0.2500000
        k(    3) = (   0.0000000  -0.5000000   0.0000000), wk =   0.1250000
        k(    4) = (   0.2500000   0.2500000   0.0000000), wk =   0.2500000
        k(    5) = (   0.2500000  -0.5000000   0.0000000), wk =   0.2500000
        k(    6) = (  -0.5000000  -0.5000000   0.0000000), wk =   0.1250000
        k(    7) = (   0.2500000   0.0000000   0.0000000), wk =   0.2500000
        k(    8) = (  -0.5000000   0.0000000   0.0000000), wk =   0.1250000
        k(    9) = (  -0.2500000   0.2500000   0.0000000), wk =   0.2500000
        k(   10) = (  -0.5000000   0.2500000   0.0000000), wk =   0.2500000

                       cryst. coord.
        k(    1) = (   0.0000000   0.0000000   0.0000000), wk =   0.1250000
        k(    2) = (   0.0000000   0.2500000   0.0000000), wk =   0.2500000
        k(    3) = (   0.0000000  -0.5000000   0.0000000), wk =   0.1250000
        k(    4) = (   0.2500000   0.2500000   0.0000000), wk =   0.2500000
        k(    5) = (   0.2500000  -0.5000000   0.0000000), wk =   0.2500000
        k(    6) = (  -0.5000000  -0.5000000   0.0000000), wk =   0.1250000
        k(    7) = (   0.2500000   0.0000000   0.0000000), wk =   0.2500000
        k(    8) = (  -0.5000000   0.0000000   0.0000000), wk =   0.1250000
        k(    9) = (  -0.2500000   0.2500000   0.0000000), wk =   0.2500000
        k(   10) = (  -0.5000000   0.2500000   0.0000000), wk =   0.2500000

     Check: negative core charge=   -0.000004

     Initial potential from superposition of free atoms

     starting charge     421.5961, renormalised to     430.0000

     negative rho (up, down):  7.826E-01 0.000E+00
     Starting wfcs are  376 randomized atomic wfcs
     Checking if some PAW data can be deallocated...

     Self-consistent Calculation

     iteration #  1     ecut=    60.00 Ry     beta= 0.15
     Davidson diagonalization with overlap

     ethr =  1.00E-02,  avg # of iterations =  2.0

     negative rho (up, down):  7.716E-01 0.000E+00

     total energy              =   -4445.20430685 Ry
     estimated scf accuracy    <      53.80278683 Ry

[...]

     c_bands:  1 eigenvalues not converged
     ethr =  6.79E-05,  avg # of iterations = 11.8

[...]

     c_bands:  1 eigenvalues not converged
     ethr =  9.74E-08,  avg # of iterations =  8.7

[...]

     total energy              =   -4440.31009140 Ry
     estimated scf accuracy    <       0.00000001 Ry

     iteration # 49     ecut=    60.00 Ry     beta= 0.15
     Davidson diagonalization with overlap

     ethr =  3.22E-12,  avg # of iterations =  2.0

     negative rho (up, down):  7.926E-01 0.000E+00

     End of self-consistent calculation

          k = 0.0000 0.0000 0.0000 ( 65197 PWs)   bands (ev):

   -92.8923 -92.8426 -92.7469 -92.7006 -92.6428 -92.5990 -92.5816 -92.4625
   -56.2459 -56.2289 -56.1036 -56.0927 -56.0873 -56.0796 -56.0458 -56.0156
   -56.0005 -55.9989 -55.9928 -55.9496 -55.9314 -55.8933 -55.8739 -55.8427
   -55.8360 -55.7885 -55.7867 -55.7838 -55.7754 -55.7373 -55.7115 -55.6275
   -31.4562 -31.4358 -31.3022 -31.2941 -31.2061 -31.1292 -31.0579 -30.5413
   -30.0380 -29.9930 -29.9673 -29.8585 -15.2682 -15.2153 -15.1416 -15.0115
   -14.8096 -14.6876 -14.4052 -14.3809 -14.3559 -14.3092 -14.2579 -14.2400
   -14.2395 -14.2164 -14.2039 -14.1679 -14.1189 -13.9641 -13.7754 -13.7520
   -13.7223 -13.6827 -13.6681 -13.6115 -13.5799 -13.4982 -13.4302 -13.3114
   -13.2912 -13.2882 -13.2665 -13.2539 -13.2350 -13.1812 -13.1774 -13.1548
   -13.1318 -13.1011 -13.0944 -13.0809 -13.0680 -13.0202 -12.9786 -12.9522
   -12.9404 -12.6457 -12.6378 -12.5216 -12.4896 -12.3753 -12.1032 -12.0496
   -12.0354 -11.9767 -11.9712 -11.9647 -11.9390 -11.9211 -11.8601 -11.8426
   -11.8086 -11.7802 -11.6645 -11.5878 -11.5841  -3.1285  -2.8974  -2.6680
    -2.5191  -2.4580  -2.3166  -2.0081  -1.9933  -1.9758  -1.8872  -1.8688
    -1.8009  -1.7837  -1.7447  -1.7004  -1.5177  -1.2910  -1.2613  -1.1194
    -1.1043  -1.0553  -1.0358  -0.9905  -0.9735  -0.9222  -0.8950  -0.8177
    -0.8058  -0.7354  -0.6001  -0.5870  -0.5584  -0.4795  -0.4509  -0.4097
    -0.3779  -0.3141  -0.2607  -0.2135  -0.1883  -0.1163  -0.0484  -0.0071
     0.0220   0.0322   0.2918   0.3049   0.4797   0.5417   0.6074   0.6665
     0.7435   0.7547   0.7743   0.8376   0.8657   0.8984   0.9559   1.0851
     1.1466   1.1679   1.1975   1.2063   1.2639   1.3313   1.4478   1.4651
     1.5247   1.5309   1.5770   1.5961   1.6070   1.6612   1.7266   1.7326
     1.7719   1.8092   1.8424   1.9757   2.0636   2.1009   2.1269   2.2682
     2.2856   2.3223   2.3278   2.4405   2.4709   2.4966   2.5174   2.5220
     2.5485   2.6142   2.6342   2.6444   2.7229   2.7542   2.7631   2.7685
     2.8369   2.8434   2.8641   2.8719   2.8813   2.8935   2.9021   2.9159
     2.9219   2.9338   2.9412   2.9497   2.9681   2.9893   2.9941   3.0060
     3.0326   3.1460   3.2437   3.9286   4.2450   4.6012   4.8220   4.8609
     5.7612   5.8066   5.8198   5.8524   6.1251   6.1716   6.4276   6.4380
     6.9346   6.9802   7.0729   7.1503   7.3500   7.5270   7.5457   7.5704
     7.7094   7.8389   7.8636   7.8899   8.0255   8.1373   8.4706   8.5471
     8.7442   8.9238

     occupation numbers
     1.0000   1.0000   1.0000   1.0000   1.0000   1.0000   1.0000   1.0000
     1.0000   1.0000   1.0000   1.0000   1.0000   1.0000   1.0000   1.0000
     1.0000   1.0000   1.0000   1.0000   1.0000   1.0000   1.0000   1.0000
     1.0000   1.0000   1.0000   1.0000   1.0000   1.0000   1.0000   1.0000
     1.0000   1.0000   1.0000   1.0000   1.0000   1.0000   1.0000   1.0000
     1.0000   1.0000   1.0000   1.0000   1.0000   1.0000   1.0000   1.0000
     1.0000   1.0000   1.0000   1.0000   1.0000   1.0000   1.0000   1.0000
     1.0000   1.0000   1.0000   1.0000   1.0000   1.0000   1.0000   1.0000
     1.0000   1.0000   1.0000   1.0000   1.0000   1.0000   1.0000   1.0000
     1.0000   1.0000   1.0000   1.0000   1.0000   1.0000   1.0000   1.0000
     1.0000   1.0000   1.0000   1.0000   1.0000   1.0000   1.0000   1.0000
     1.0000   1.0000   1.0000   1.0000   1.0000   1.0000   1.0000   1.0000
     1.0000   1.0000   1.0000   1.0000   1.0000   1.0000   1.0000   1.0000
     1.0000   1.0000   1.0000   1.0000   1.0000   1.0000   1.0000   1.0000
     1.0000   1.0000   1.0000   1.0000   1.0000   1.0000   1.0000   1.0000
     1.0000   1.0000   1.0000   1.0000   1.0000   1.0000   1.0000   1.0000
     1.0000   1.0000   1.0000   1.0000   1.0000   1.0000   1.0000   1.0000
     1.0000   1.0000   1.0000   1.0000   1.0000   1.0000   1.0000   1.0000
     1.0000   1.0000   1.0000   1.0000   1.0000   1.0000   1.0000   1.0000
     1.0000   1.0000   1.0000   1.0000   1.0000   0.9999   0.9999   0.9999
     0.9998   0.9998   0.9998   0.9997   0.9996   0.9996   0.9994   0.9988
     0.9984   0.9983   0.9980   0.9979   0.9973   0.9963   0.9939   0.9935
     0.9916   0.9914   0.9897   0.9889   0.9884   0.9858   0.9818   0.9814
     0.9786   0.9756   0.9727   0.9576   0.9444   0.9379   0.9331   0.9013
     0.8968   0.8867   0.8851   0.8493   0.8385   0.8290   0.8210   0.8192
     0.8086   0.7810   0.7721   0.7675   0.7304   0.7148   0.7103   0.7076
     0.6718   0.6683   0.6570   0.6528   0.6476   0.6408   0.6360   0.6283
     0.6249   0.6182   0.6140   0.6092   0.5987   0.5865   0.5837   0.5768
     0.5613   0.4943   0.4367   0.1197   0.0499   0.0148   0.0062   0.0052
     0.0000   0.0000   0.0000   0.0000   0.0000   0.0000   0.0000   0.0000
     0.0000   0.0000   0.0000   0.0000   0.0000   0.0000   0.0000   0.0000
     0.0000   0.0000   0.0000   0.0000   0.0000   0.0000   0.0000   0.0000
     0.0000   0.0000

[...]

          k =-0.5000-0.5000 0.0000 ( 65132 PWs)   bands (ev):

[...]

          k = 0.2500 0.0000 0.0000 ( 65257 PWs)   bands (ev):

[...]

          k =-0.5000 0.2500 0.0000 ( 65138 PWs)   bands (ev):

   -92.8923 -92.8426 -92.7469 -92.7006 -92.6428 -92.5990 -92.5816 -92.4625
   -56.2459 -56.2289 -56.1036 -56.0927 -56.0873 -56.0796 -56.0458 -56.0156
   -56.0005 -55.9989 -55.9928 -55.9496 -55.9314 -55.8933 -55.8739 -55.8427
   -55.8360 -55.7885 -55.7867 -55.7838 -55.7754 -55.7373 -55.7115 -55.6275
   -31.4524 -31.4393 -31.3018 -31.2935 -31.2070 -31.1293 -31.0581 -30.5415
   -30.0355 -29.9947 -29.9672 -29.8597 -15.1670 -15.1170 -15.0389 -14.9417
   -14.9008 -14.7771 -14.6806 -14.5557 -14.2507 -14.2196 -14.2074 -14.1596
   -14.1379 -14.1140 -14.0791 -14.0667 -14.0448 -14.0083 -13.9994 -13.8858
   -13.8212 -13.7730 -13.7644 -13.7343 -13.6506 -13.6406 -13.5141 -13.4674
   -13.3780 -13.3444 -13.2500 -13.2232 -13.2028 -13.1939 -13.1631 -13.1300
   -13.1176 -13.0876 -13.0575 -12.9970 -12.9716 -12.8468 -12.8138 -12.8012
   -12.7940 -12.7178 -12.5225 -12.5006 -12.4887 -12.4364 -12.2030 -12.1633
   -11.9746 -11.9592 -11.9460 -11.9316 -11.9205 -11.8979 -11.8686 -11.7884
   -11.7781 -11.7573 -11.7182 -11.6919 -11.6835  -2.6253  -2.5843  -2.4365
    -2.3948  -2.2320  -2.1547  -2.0145  -1.8800  -1.8215  -1.7954  -1.7566
    -1.7199  -1.6381  -1.5228  -1.4649  -1.4427  -1.4158  -1.3340  -1.3120
    -1.2711  -1.2556  -1.1946  -1.1618  -1.1270  -1.0916  -1.0626  -1.0033
    -0.9763  -0.9352  -0.8987  -0.7934  -0.7670  -0.6696  -0.6169  -0.5805
    -0.5197  -0.4434  -0.4088  -0.3087  -0.2658  -0.2069  -0.1565  -0.1206
    -0.0631  -0.0338   0.0015   0.0457   0.0848   0.4114   0.4724   0.5360
     0.5647   0.8365   0.9011   0.9674   0.9991   1.1690   1.2038   1.2413
     1.2501   1.2685   1.2863   1.3574   1.4030   1.4459   1.4787   1.5999
     1.6399   1.6649   1.6787   1.7170   1.7400   1.7569   1.7687   1.7860
     1.8089   1.8539   1.8659   1.9055   1.9291   1.9641   2.0162   2.1418
     2.2349   2.2627   2.3282   2.3637   2.4282   2.4605   2.4680   2.5099
     2.5266   2.5514   2.5669   2.6232   2.6392   2.6577   2.6937   2.7074
     2.7120   2.7314   2.7539   2.7658   2.7831   2.7930   2.8174   2.8304
     2.8382   2.8466   2.8565   2.8702   3.4026   3.4426   3.5870   3.6065
     3.9011   3.9678   4.0197   4.2237   4.6022   4.7028   4.8775   4.9271
     5.2331   5.2577   5.4832   5.5721   5.6040   5.6434   6.3244   6.3521
     6.4549   6.7601   7.2504   7.5944   7.6659   7.7189   7.7527   7.7899
     7.8987   8.0122   8.1460   8.3394   8.4066   8.4255   8.5025   8.5567
     8.6897   8.7112

     occupation numbers
     1.0000   1.0000   1.0000   1.0000   1.0000   1.0000   1.0000   1.0000
     1.0000   1.0000   1.0000   1.0000   1.0000   1.0000   1.0000   1.0000
     1.0000   1.0000   1.0000   1.0000   1.0000   1.0000   1.0000   1.0000
     1.0000   1.0000   1.0000   1.0000   1.0000   1.0000   1.0000   1.0000
     1.0000   1.0000   1.0000   1.0000   1.0000   1.0000   1.0000   1.0000
     1.0000   1.0000   1.0000   1.0000   1.0000   1.0000   1.0000   1.0000
     1.0000   1.0000   1.0000   1.0000   1.0000   1.0000   1.0000   1.0000
     1.0000   1.0000   1.0000   1.0000   1.0000   1.0000   1.0000   1.0000
     1.0000   1.0000   1.0000   1.0000   1.0000   1.0000   1.0000   1.0000
     1.0000   1.0000   1.0000   1.0000   1.0000   1.0000   1.0000   1.0000
     1.0000   1.0000   1.0000   1.0000   1.0000   1.0000   1.0000   1.0000
     1.0000   1.0000   1.0000   1.0000   1.0000   1.0000   1.0000   1.0000
     1.0000   1.0000   1.0000   1.0000   1.0000   1.0000   1.0000   1.0000
     1.0000   1.0000   1.0000   1.0000   1.0000   1.0000   1.0000   1.0000
     1.0000   1.0000   1.0000   1.0000   1.0000   1.0000   1.0000   1.0000
     1.0000   1.0000   1.0000   1.0000   1.0000   1.0000   1.0000   1.0000
     1.0000   1.0000   1.0000   1.0000   1.0000   1.0000   1.0000   1.0000
     1.0000   1.0000   1.0000   1.0000   1.0000   1.0000   1.0000   1.0000
     1.0000   1.0000   1.0000   1.0000   1.0000   1.0000   1.0000   1.0000
     1.0000   1.0000   1.0000   1.0000   1.0000   1.0000   1.0000   0.9999
     0.9999   0.9997   0.9995   0.9994   0.9992   0.9983   0.9979   0.9976
     0.9975   0.9972   0.9970   0.9959   0.9950   0.9940   0.9931   0.9887
     0.9869   0.9856   0.9848   0.9825   0.9809   0.9797   0.9789   0.9775
     0.9756   0.9716   0.9704   0.9662   0.9635   0.9591   0.9519   0.9301
     0.9097   0.9027   0.8849   0.8744   0.8535   0.8422   0.8395   0.8239
     0.8174   0.8075   0.8011   0.7770   0.7699   0.7614   0.7446   0.7380
     0.7357   0.7262   0.7150   0.7090   0.7001   0.6949   0.6821   0.6752
     0.6711   0.6665   0.6612   0.6537   0.3463   0.3247   0.2517   0.2426
     0.1281   0.1085   0.0948   0.0532   0.0148   0.0100   0.0049   0.0039
     0.0009   0.0008   0.0002   0.0001   0.0001   0.0001   0.0000   0.0000
     0.0000   0.0000   0.0000   0.0000   0.0000   0.0000   0.0000   0.0000
     0.0000   0.0000   0.0000   0.0000   0.0000   0.0000   0.0000   0.0000
     0.0000   0.0000

     the Fermi energy is     3.1364 ev

!    total energy              =   -4440.31009141 Ry
     estimated scf accuracy    <          9.4E-09 Ry
     smearing contrib. (-TS)   =      -1.20834910 Ry
     internal energy E=F+TS    =   -4439.10174231 Ry

     The total energy is F=E-TS. E is the sum of the following terms:
     one-electron contribution =  -20889.94118471 Ry
     hartree contribution      =   10573.87164997 Ry
     xc contribution           =    -693.25214831 Ry
     ewald contribution        =    6846.41076932 Ry
     one-center paw contrib.   =    -276.19082857 Ry
      -> PAW hartree energy AE =      25.14705326 Ry
      -> PAW hartree energy PS =     -25.03109993 Ry
      -> PAW xc energy AE      =     -16.51525981 Ry
      -> PAW xc energy PS      =       6.87460969 Ry
      -> total E_H with PAW    =   10573.98760329 Ry
      -> total E_XC with PAW   =    -702.89279843 Ry

     convergence has been achieved in  49 iterations

     Writing all to output data dir /bsuhome/zayahcortright/scratch/pwscf.save/

     General routines

     Parallel routines

     PAW routines

   This run was terminated on:  16:36:51  21Jun2024

   JOB DONE.