     Program PWSCF v.7.2 starts on 21Jun2024 at 18: 7:45

     Reading input from espresso.pwi
Warning: card &CELL ignored
Warning: card / ignored
Warning: card &FCP ignored
Warning: card / ignored
Warning: card &RISM ignored
Warning: card / ignored

     Current dimensions of program PWSCF are:
     Max number of different atomic species (ntypx) = 10
     Max number of k-points (npk) =  40000
     Max angular momentum in pseudopotentials (lmaxx) =  4
     file O.pbe-n-kjpaw_psl.0.1.UPF: wavefunction(s)  2P renormalized
     signal trapping enabled: kill the code with -SIGUSR1 to stop cleanly the simulation

     K-points division:     npool     =       2
     R & G space division:  proc/nbgrp/npool/nimage =      24
     Subspace diagonalization in iterative solution of the eigenvalue problem:
     one sub-group per band group will be used

     Using Slab Decomposition

     bravais-lattice index     =            0
     lattice parameter (alat)  =      14.8599  a.u.
     unit-cell volume          =    8305.1283 (a.u.)^3
     number of atoms/cell      =           50
     number of atomic types    =            4
     number of electrons       =       431.00
     number of Kohn-Sham states=          259
     kinetic-energy cutoff     =      60.0000  Ry
     charge density cutoff     =     480.0000  Ry
     scf convergence threshold =      1.0E-08
     mixing beta               =       0.1500
     number of iterations used =            8  local-TF  mixing
     Exchange-correlation= PBE
                           (   1   4   3   4   0   0   0)

     celldm(1)=  14.859904  celldm(2)=   0.000000  celldm(3)=   0.000000
     celldm(4)=   0.000000  celldm(5)=   0.000000  celldm(6)=   0.000000

     crystal axes: (cart. coord. in units of alat)
               a(1) = (   1.000000   0.000000   0.000000 )
               a(2) = (   0.000000   1.000000   0.000000 )
               a(3) = (   0.000000   0.000000   2.531036 )

     reciprocal axes: (cart. coord. in units 2 pi/alat)
               b(1) = (  1.000000  0.000000  0.000000 )
               b(2) = (  0.000000  1.000000  0.000000 )
               b(3) = (  0.000000  0.000000  0.395095 )

     PseudoPot. # 1 for Sr read from file:
     /bsuhome/zayahcortright/q-e/pseudo/Sr_pbe_v1.uspp.F.UPF
     MD5 check sum: 6b418c05fbe9db5448babca5e47b7a5b
     Pseudo is Ultrasoft + core correction, Zval = 10.0
     Generated by new atomic code, or converted to UPF format
     Using radial grid of  883 points,  6 beta functions with:
                l(1) =   0
                l(2) =   0
                l(3) =   1
                l(4) =   1
                l(5) =   2
                l(6) =   2
     Q(r) pseudized with  6 coefficients,  rinner =    1.400   1.400   1.400
                                                       1.400   1.400

     PseudoPot. # 2 for O  read from file:
     /bsuhome/zayahcortright/q-e/pseudo/O.pbe-n-kjpaw_psl.0.1.UPF
     MD5 check sum: 0234752ac141de4415c5fc33072bef88
     Pseudo is Projector augmented-wave + core cor, Zval =  6.0
     Generated using "atomic" code by A. Dal Corso  v.5.0.99 svn rev. 10869
     Shape of augmentation charge: BESSEL
     Using radial grid of 1095 points,  4 beta functions with:
                l(1) =   0
                l(2) =   0
                l(3) =   1
                l(4) =   1
     Q(r) pseudized with 0 coefficients

     PseudoPot. # 3 for Co read from file:
     /bsuhome/zayahcortright/q-e/pseudo/Co_pbe_v1.2.uspp.F.UPF
     MD5 check sum: 5f91765df6ddd3222702df6e7b74a16d
     Pseudo is Ultrasoft + core correction, Zval = 17.0
     Generated by new atomic code, or converted to UPF format
     Using radial grid of  863 points,  6 beta functions with:
                l(1) =   0
                l(2) =   0
                l(3) =   1
                l(4) =   1
                l(5) =   2
                l(6) =   2
     Q(r) pseudized with  8 coefficients,  rinner =    1.200   1.200   1.200
                                                       1.200   1.200

     PseudoPot. # 4 for H  read from file:
     /bsuhome/zayahcortright/q-e/pseudo/H.pbe-rrkjus_psl.1.0.0.UPF
     MD5 check sum: f52b6d4d1c606e5624b1dc7b2218f220
     Pseudo is Ultrasoft, Zval =  1.0
     Generated using "atomic" code by A. Dal Corso  v.5.1
     Using radial grid of  929 points,  2 beta functions with:
                l(1) =   0
                l(2) =   0
     Q(r) pseudized with 0 coefficients

     atomic species   valence    mass     pseudopotential
        Sr            10.00    87.62000     Sr( 1.00)
        O              6.00    15.99900     O ( 1.00)
        Co            17.00    58.93319     Co( 1.00)
        H              1.00     1.00800     H ( 1.00)

     No symmetry found

                                    s                        frac. trans.

      isym =  1     identity

 cryst.   s( 1) = (     1          0          0      )
                  (     0          1          0      )
                  (     0          0          1      )

 cart.    s( 1) = (  1.0000000  0.0000000  0.0000000 )
                  (  0.0000000  1.0000000  0.0000000 )
                  (  0.0000000  0.0000000  1.0000000 )

   Cartesian axes

     site n.     atom                  positions (alat units)
         1           Sr  tau(   1) = (   0.2508693   0.7491307   1.7574407  )
         2           O   tau(   2) = (   0.4985141   0.5014859   1.7715967  )
         3           Sr  tau(   3) = (   0.7482398   0.7454518   1.7648669  )
         4           Sr  tau(   4) = (   0.7441748   0.2558252   1.7667843  )
         5           Sr  tau(   5) = (   0.2508693   0.7491307   1.2696799  )
         6           Sr  tau(   6) = (   0.2508693   0.7491307   0.7632319  )
         7           Co  tau(   7) = (   0.4998914   0.5001086   1.0164559  )
         8           Co  tau(   8) = (   0.4936915   0.5063085   1.5135603  )
         9           O   tau(   9) = (   0.4988895   0.7610401   1.0164559  )
        10           O   tau(  10) = (   0.2389599   0.5011105   1.0164559  )
        11           O   tau(  11) = (   0.0070918   0.7374880   1.0164559  )
        12           O   tau(  12) = (   0.0088340   0.7405089   1.5135603  )
        13           O   tau(  13) = (   0.5066944   0.7415376   1.5135603  )
        14           O   tau(  14) = (   0.2584624   0.4933056   1.5135603  )
        15           O   tau(  15) = (   0.4985141   0.5014859   0.7773880  )
        16           O   tau(  16) = (   0.4985141   0.5014859   1.2555238  )
        17           Sr  tau(  17) = (   0.7482398   0.7454518   0.7706582  )
        18           Sr  tau(  18) = (   0.7482398   0.7454518   1.2622536  )
        19           Sr  tau(  19) = (   0.7441748   0.2558252   0.7725755  )
        20           Sr  tau(  20) = (   0.7441748   0.2558252   1.2603363  )
        21           O   tau(  21) = (   0.7322655   0.0078049   1.5135603  )
        22           O   tau(  22) = (   0.7558175   0.4996027   1.5135603  )
        23           O   tau(  23) = (   0.5003973   0.2441825   1.5135603  )
        24           O   tau(  24) = (   0.7527966   0.4978604   1.0164559  )
        25           O   tau(  25) = (   0.5021396   0.2472034   1.0164559  )
        26           O   tau(  26) = (   0.7517679   0.0000000   1.0164559  )
        27           O   tau(  27) = (   0.0114961   0.4948124   1.7455321  )
        28           O   tau(  28) = (   0.0048226   0.0077944   1.7715967  )
        29           Sr  tau(  29) = (   0.2545482   0.2517602   1.7648669  )
        30           O   tau(  30) = (   0.5048017   0.0015068   1.7786929  )
        31           Co  tau(  31) = (   0.0056869   0.5006215   1.0164559  )
        32           Co  tau(  32) = (   0.0065315   0.4997770   1.5135603  )
        33           Co  tau(  33) = (   0.0061999   0.0064171   1.0164559  )
        34           Co  tau(  34) = (   0.0000000   0.0126169   1.5135603  )
        35           O   tau(  35) = (   0.0114961   0.4948124   1.2815885  )
        36           O   tau(  36) = (   0.0114961   0.4948124   0.7513233  )
        37           O   tau(  37) = (   0.0051979   0.2673486   1.0164559  )
        38           O   tau(  38) = (   0.0130029   0.2478461   1.5135603  )
        39           O   tau(  39) = (   0.0048226   0.0077944   0.7773880  )
        40           O   tau(  40) = (   0.0048226   0.0077944   1.2555238  )
        41           Sr  tau(  41) = (   0.2545482   0.2517602   0.7706582  )
        42           Sr  tau(  42) = (   0.2545482   0.2517602   1.2622536  )
        43           Co  tau(  43) = (   0.4989925   0.0073160   1.5135603  )
        44           Co  tau(  44) = (   0.4998370   0.0064714   1.0164559  )
        45           O   tau(  45) = (   0.5048017   0.0015068   0.7844841  )
        46           O   tau(  46) = (   0.5048017   0.0015068   1.2484277  )
        47           O   tau(  47) = (   0.2621260   0.0059111   1.5135603  )
        48           O   tau(  48) = (   0.2591051   0.0041689   1.0164559  )
        49           O   tau(  49) = (   0.2843291   0.0000000   2.1602013  )
        50           H   tau(  50) = (   0.2843291   0.0000000   2.2847091  )

   Crystallographic axes

     site n.     atom                  positions (cryst. coord.)
         1           Sr  tau(   1) = (  0.2508693  0.7491307  0.6943562  )
         2           O   tau(   2) = (  0.4985141  0.5014859  0.6999492  )
         3           Sr  tau(   3) = (  0.7482398  0.7454518  0.6972903  )
         4           Sr  tau(   4) = (  0.7441748  0.2558252  0.6980478  )
         5           Sr  tau(   5) = (  0.2508693  0.7491307  0.5016443  )
         6           Sr  tau(   6) = (  0.2508693  0.7491307  0.3015492  )
         7           Co  tau(   7) = (  0.4998914  0.5001086  0.4015968  )
         8           Co  tau(   8) = (  0.4936915  0.5063085  0.5980003  )
         9           O   tau(   9) = (  0.4988895  0.7610401  0.4015968  )
        10           O   tau(  10) = (  0.2389599  0.5011105  0.4015968  )
        11           O   tau(  11) = (  0.0070918  0.7374880  0.4015968  )
        12           O   tau(  12) = (  0.0088340  0.7405089  0.5980003  )
        13           O   tau(  13) = (  0.5066944  0.7415376  0.5980003  )
        14           O   tau(  14) = (  0.2584624  0.4933056  0.5980003  )
        15           O   tau(  15) = (  0.4985141  0.5014859  0.3071422  )
        16           O   tau(  16) = (  0.4985141  0.5014859  0.4960513  )
        17           Sr  tau(  17) = (  0.7482398  0.7454518  0.3044833  )
        18           Sr  tau(  18) = (  0.7482398  0.7454518  0.4987103  )
        19           Sr  tau(  19) = (  0.7441748  0.2558252  0.3052408  )
        20           Sr  tau(  20) = (  0.7441748  0.2558252  0.4979527  )
        21           O   tau(  21) = (  0.7322655  0.0078049  0.5980003  )
        22           O   tau(  22) = (  0.7558175  0.4996027  0.5980003  )
        23           O   tau(  23) = (  0.5003973  0.2441825  0.5980003  )
        24           O   tau(  24) = (  0.7527966  0.4978604  0.4015968  )
        25           O   tau(  25) = (  0.5021396  0.2472034  0.4015968  )
        26           O   tau(  26) = (  0.7517679  0.0000000  0.4015968  )
        27           O   tau(  27) = (  0.0114961  0.4948124  0.6896512  )
        28           O   tau(  28) = (  0.0048226  0.0077944  0.6999492  )
        29           Sr  tau(  29) = (  0.2545482  0.2517602  0.6972903  )
        30           O   tau(  30) = (  0.5048017  0.0015068  0.7027529  )
        31           Co  tau(  31) = (  0.0056869  0.5006215  0.4015968  )
        32           Co  tau(  32) = (  0.0065315  0.4997770  0.5980003  )
        33           Co  tau(  33) = (  0.0061999  0.0064171  0.4015968  )
        34           Co  tau(  34) = (  0.0000000  0.0126169  0.5980003  )
        35           O   tau(  35) = (  0.0114961  0.4948124  0.5063494  )
        36           O   tau(  36) = (  0.0114961  0.4948124  0.2968442  )
        37           O   tau(  37) = (  0.0051979  0.2673486  0.4015968  )
        38           O   tau(  38) = (  0.0130029  0.2478461  0.5980003  )
        39           O   tau(  39) = (  0.0048226  0.0077944  0.3071422  )
        40           O   tau(  40) = (  0.0048226  0.0077944  0.4960513  )
        41           Sr  tau(  41) = (  0.2545482  0.2517602  0.3044833  )
        42           Sr  tau(  42) = (  0.2545482  0.2517602  0.4987103  )
        43           Co  tau(  43) = (  0.4989925  0.0073160  0.5980003  )
        44           Co  tau(  44) = (  0.4998370  0.0064714  0.4015968  )
        45           O   tau(  45) = (  0.5048017  0.0015068  0.3099459  )
        46           O   tau(  46) = (  0.5048017  0.0015068  0.4932477  )
        47           O   tau(  47) = (  0.2621260  0.0059111  0.5980003  )
        48           O   tau(  48) = (  0.2591051  0.0041689  0.4015968  )
        49           O   tau(  49) = (  0.2843291  0.0000000  0.8534850  )
        50           H   tau(  50) = (  0.2843291  0.0000000  0.9026774  )

     number of k points=    10  Gaussian smearing, width (Ry)=  0.0700
                       cart. coord. in units 2pi/alat
        k(    1) = (   0.0000000   0.0000000   0.0000000), wk =   0.1250000
        k(    2) = (   0.0000000   0.2500000   0.0000000), wk =   0.2500000
        k(    3) = (   0.0000000  -0.5000000   0.0000000), wk =   0.1250000
        k(    4) = (   0.2500000   0.2500000   0.0000000), wk =   0.2500000
        k(    5) = (   0.2500000  -0.5000000   0.0000000), wk =   0.2500000
        k(    6) = (  -0.5000000  -0.5000000   0.0000000), wk =   0.1250000
        k(    7) = (   0.2500000   0.0000000   0.0000000), wk =   0.2500000
        k(    8) = (  -0.5000000   0.0000000   0.0000000), wk =   0.1250000
        k(    9) = (  -0.2500000   0.2500000   0.0000000), wk =   0.2500000
        k(   10) = (  -0.5000000   0.2500000   0.0000000), wk =   0.2500000

                       cryst. coord.
        k(    1) = (   0.0000000   0.0000000   0.0000000), wk =   0.1250000
        k(    2) = (   0.0000000   0.2500000   0.0000000), wk =   0.2500000
        k(    3) = (   0.0000000  -0.5000000   0.0000000), wk =   0.1250000
        k(    4) = (   0.2500000   0.2500000   0.0000000), wk =   0.2500000
        k(    5) = (   0.2500000  -0.5000000   0.0000000), wk =   0.2500000
        k(    6) = (  -0.5000000  -0.5000000   0.0000000), wk =   0.1250000
        k(    7) = (   0.2500000   0.0000000   0.0000000), wk =   0.2500000
        k(    8) = (  -0.5000000   0.0000000   0.0000000), wk =   0.1250000
        k(    9) = (  -0.2500000   0.2500000   0.0000000), wk =   0.2500000
        k(   10) = (  -0.5000000   0.2500000   0.0000000), wk =   0.2500000

     Check: negative core charge=   -0.000004

     Initial potential from superposition of free atoms

     starting charge     422.5961, renormalised to     431.0000

     negative rho (up, down):  7.820E-01 0.000E+00
     Starting wfcs are  377 randomized atomic wfcs
     Checking if some PAW data can be deallocated...

     Self-consistent Calculation

     iteration #  1     ecut=    60.00 Ry     beta= 0.15
     Davidson diagonalization with overlap

     ethr =  1.00E-02,  avg # of iterations =  2.0

     negative rho (up, down):  7.716E-01 0.000E+00

     total energy              =   -4446.63593207 Ry
     estimated scf accuracy    <      44.74823403 Ry

[...]

     c_bands:  4 eigenvalues not converged
     ethr =  1.51E-04,  avg # of iterations =  6.4

[...]

     c_bands:  1 eigenvalues not converged
     c_bands:  1 eigenvalues not converged
     ethr =  4.04E-06,  avg # of iterations = 14.6

[...]

     total energy              =   -4441.65567399 Ry
     estimated scf accuracy    <       0.00000001 Ry

     iteration # 47     ecut=    60.00 Ry     beta= 0.15
     Davidson diagonalization with overlap

     ethr =  2.51E-12,  avg # of iterations =  1.1

     negative rho (up, down):  7.925E-01 0.000E+00

     End of self-consistent calculation

          k = 0.0000 0.0000 0.0000 ( 65197 PWs)   bands (ev):

   -92.6816 -92.6282 -92.5352 -92.4892 -92.4304 -92.3877 -92.3706 -92.2507
   -56.0351 -56.0147 -55.8926 -55.8823 -55.8752 -55.8691 -55.8329 -55.8045
   -55.7892 -55.7871 -55.7786 -55.7379 -55.7204 -55.6815 -55.6615 -55.6303
   -55.6244 -55.5762 -55.5753 -55.5730 -55.5646 -55.5259 -55.5009 -55.4174
   -31.2594 -31.2398 -31.1054 -31.0983 -31.0176 -31.0112 -30.7443 -30.6175
   -29.8290 -29.7848 -29.7601 -29.6506 -15.0617 -15.0150 -14.9372 -14.8069
   -14.6139 -14.4894 -14.1998 -14.1801 -14.1500 -14.1056 -14.0587 -14.0488
   -14.0385 -14.0200 -13.9955 -13.9691 -13.9463 -13.9106 -13.7596 -13.5836
   -13.5482 -13.5172 -13.4890 -13.4696 -13.4154 -13.3819 -13.3039 -13.2319
   -13.1129 -13.0995 -13.0903 -13.0728 -13.0556 -13.0385 -12.9951 -12.9851
   -12.9608 -12.9400 -12.9147 -12.9055 -12.8980 -12.8806 -12.8672 -12.7587
   -12.7240 -12.6792 -12.5623 -12.5502 -12.5267 -12.3238 -12.1781 -11.9752
   -11.9119 -11.8418 -11.7679 -11.7571 -11.7335 -11.7161 -11.6525 -11.6354
   -11.6005 -11.5722 -11.4593 -11.3801 -11.3764  -2.9218  -2.6895  -2.4602
    -2.3130  -2.2500  -2.1080  -1.8010  -1.7869  -1.7673  -1.6835  -1.6631
    -1.5954  -1.5790  -1.5384  -1.4935  -1.3115  -1.1118  -1.0882  -1.0550
    -0.9114  -0.8968  -0.8499  -0.8324  -0.7850  -0.7701  -0.7141  -0.6877
    -0.6145  -0.5987  -0.5274  -0.3956  -0.3826  -0.3542  -0.2730  -0.2598
    -0.2512  -0.1797  -0.1084  -0.0551  -0.0105   0.0215   0.0903   0.1574
     0.2013   0.2284   0.2345   0.4918   0.5072   0.6826   0.7465   0.8164
     0.8637   0.9450   0.9614   0.9796   1.0425   1.0697   1.1046   1.1618
     1.2931   1.3546   1.3738   1.3930   1.4036   1.4702   1.5412   1.6469
     1.6585   1.7272   1.7398   1.7797   1.7980   1.8035   1.8617   1.9160
     1.9391   1.9721   2.0424   2.0497   2.1790   2.2624   2.3043   2.3303
     2.4389   2.4835   2.4932   2.5239   2.5317   2.5453   2.6472   2.6776
     2.7053   2.7235   2.7359   2.8176   2.9272   2.9576   2.9706   2.9772
     3.0455   3.0489   3.0728   3.0809   3.0898   3.1025   3.1084   3.1220
     3.1277   3.1405   3.1494   3.1572   3.1765   3.1972   3.2024   3.2144
     3.2467   3.3555   3.4317   4.1261   4.4570   4.7884   4.8770   5.0628
     5.7251   5.9529   6.0067   6.0293   6.3335   6.3807   6.4926   6.4982
     6.7186   7.0197   7.1009   7.3330   7.4862   7.5309   7.6610   7.6775
     7.7009   7.8452   7.9786   8.0109   8.1255   8.1845   8.3281   8.4106
     8.7211   8.8547   8.9080

     occupation numbers
     1.0000   1.0000   1.0000   1.0000   1.0000   1.0000   1.0000   1.0000
     1.0000   1.0000   1.0000   1.0000   1.0000   1.0000   1.0000   1.0000
     1.0000   1.0000   1.0000   1.0000   1.0000   1.0000   1.0000   1.0000
     1.0000   1.0000   1.0000   1.0000   1.0000   1.0000   1.0000   1.0000
     1.0000   1.0000   1.0000   1.0000   1.0000   1.0000   1.0000   1.0000
     1.0000   1.0000   1.0000   1.0000   1.0000   1.0000   1.0000   1.0000
     1.0000   1.0000   1.0000   1.0000   1.0000   1.0000   1.0000   1.0000
     1.0000   1.0000   1.0000   1.0000   1.0000   1.0000   1.0000   1.0000
     1.0000   1.0000   1.0000   1.0000   1.0000   1.0000   1.0000   1.0000
     1.0000   1.0000   1.0000   1.0000   1.0000   1.0000   1.0000   1.0000
     1.0000   1.0000   1.0000   1.0000   1.0000   1.0000   1.0000   1.0000
     1.0000   1.0000   1.0000   1.0000   1.0000   1.0000   1.0000   1.0000
     1.0000   1.0000   1.0000   1.0000   1.0000   1.0000   1.0000   1.0000
     1.0000   1.0000   1.0000   1.0000   1.0000   1.0000   1.0000   1.0000
     1.0000   1.0000   1.0000   1.0000   1.0000   1.0000   1.0000   1.0000
     1.0000   1.0000   1.0000   1.0000   1.0000   1.0000   1.0000   1.0000
     1.0000   1.0000   1.0000   1.0000   1.0000   1.0000   1.0000   1.0000
     1.0000   1.0000   1.0000   1.0000   1.0000   1.0000   1.0000   1.0000
     1.0000   1.0000   1.0000   1.0000   1.0000   1.0000   1.0000   1.0000
     1.0000   1.0000   1.0000   1.0000   1.0000   1.0000   0.9999   0.9999
     0.9999   0.9998   0.9998   0.9998   0.9997   0.9996   0.9996   0.9994
     0.9989   0.9984   0.9983   0.9981   0.9980   0.9973   0.9963   0.9942
     0.9939   0.9919   0.9915   0.9900   0.9892   0.9890   0.9863   0.9832
     0.9817   0.9793   0.9736   0.9729   0.9585   0.9462   0.9391   0.9343
     0.9111   0.8999   0.8974   0.8890   0.8868   0.8828   0.8504   0.8396
     0.8294   0.8224   0.8176   0.7837   0.7331   0.7181   0.7115   0.7081
     0.6724   0.6706   0.6576   0.6532   0.6483   0.6413   0.6380   0.6304
     0.6272   0.6200   0.6150   0.6105   0.5995   0.5876   0.5845   0.5776
     0.5588   0.4945   0.4495   0.1234   0.0495   0.0161   0.0115   0.0054
     0.0002   0.0001   0.0000   0.0000   0.0000   0.0000   0.0000   0.0000
     0.0000   0.0000   0.0000   0.0000   0.0000   0.0000   0.0000   0.0000
     0.0000   0.0000   0.0000   0.0000   0.0000   0.0000   0.0000   0.0000
     0.0000   0.0000   0.0000

[...]

          k =-0.5000-0.5000 0.0000 ( 65132 PWs)   bands (ev):

[...]

          k = 0.2500 0.0000 0.0000 ( 65257 PWs)   bands (ev):

[...]

          k =-0.5000 0.2500 0.0000 ( 65138 PWs)   bands (ev):

   -92.6816 -92.6282 -92.5352 -92.4892 -92.4304 -92.3877 -92.3706 -92.2507
   -56.0351 -56.0147 -55.8926 -55.8823 -55.8752 -55.8691 -55.8329 -55.8045
   -55.7892 -55.7871 -55.7786 -55.7379 -55.7204 -55.6815 -55.6615 -55.6303
   -55.6244 -55.5762 -55.5753 -55.5730 -55.5646 -55.5259 -55.5009 -55.4174
   -31.2554 -31.2435 -31.1049 -31.0978 -31.0178 -31.0121 -30.7443 -30.6179
   -29.8264 -29.7864 -29.7600 -29.6518 -14.9615 -14.9148 -14.8360 -14.7401
   -14.6982 -14.5719 -14.4793 -14.3563 -14.0466 -14.0156 -14.0037 -13.9578
   -13.9461 -13.9363 -13.9112 -13.8752 -13.8734 -13.8457 -13.8107 -13.7988
   -13.6844 -13.6182 -13.5698 -13.5671 -13.5535 -13.4600 -13.4492 -13.3086
   -13.2781 -13.1811 -13.1464 -13.0548 -13.0384 -13.0074 -12.9972 -12.9759
   -12.9454 -12.9242 -12.9143 -12.8867 -12.8363 -12.6956 -12.6412 -12.6297
   -12.6041 -12.5973 -12.5617 -12.5203 -12.3600 -12.3037 -12.2505 -12.1056
   -12.0837 -11.7518 -11.7388 -11.7247 -11.7131 -11.6910 -11.6609 -11.5813
   -11.5721 -11.5497 -11.5120 -11.4843 -11.4758  -2.4194  -2.3779  -2.2291
    -2.1872  -2.0260  -1.9514  -1.8072  -1.6727  -1.6163  -1.5893  -1.5497
    -1.5113  -1.4304  -1.3155  -1.2583  -1.2355  -1.2100  -1.1355  -1.1107
    -1.1021  -1.0591  -1.0479  -0.9871  -0.9586  -0.9194  -0.8841  -0.8553
    -0.7976  -0.7707  -0.7290  -0.6947  -0.5907  -0.5621  -0.4764  -0.4111
    -0.3798  -0.3271  -0.2384  -0.2041  -0.1052  -0.0627  -0.0082   0.0490
     0.0647   0.1403   0.1698   0.2059   0.2517   0.2913   0.6010   0.6634
     0.7470   0.7909   1.0389   1.0936   1.1667   1.1962   1.3702   1.4072
     1.4451   1.4565   1.4750   1.4930   1.5627   1.6039   1.6469   1.6724
     1.8035   1.8326   1.8651   1.8780   1.9286   1.9404   1.9558   1.9738
     1.9936   2.0141   2.0665   2.0745   2.1101   2.1320   2.1705   2.2226
     2.3430   2.4287   2.4587   2.4694   2.5188   2.5461   2.5735   2.6438
     2.6731   2.6789   2.7173   2.7496   2.7729   2.8579   2.8979   2.9116
     2.9165   2.9377   2.9609   2.9734   2.9886   3.0002   3.0220   3.0349
     3.0452   3.0525   3.0641   3.0753   3.6040   3.6545   3.7947   3.8177
     4.1056   4.1673   4.2167   4.4387   4.8051   4.8996   5.0605   5.0958
     5.4229   5.4505   5.6018   5.6347   5.7665   5.8022   6.2837   6.4063
     6.5087   6.6642   7.1839   7.3933   7.5453   7.7258   7.8074   7.8669
     7.9192   8.0413   8.2005   8.4013   8.4269   8.5240   8.5562   8.5919
     8.6664   8.7467   8.8509

     occupation numbers
     1.0000   1.0000   1.0000   1.0000   1.0000   1.0000   1.0000   1.0000
     1.0000   1.0000   1.0000   1.0000   1.0000   1.0000   1.0000   1.0000
     1.0000   1.0000   1.0000   1.0000   1.0000   1.0000   1.0000   1.0000
     1.0000   1.0000   1.0000   1.0000   1.0000   1.0000   1.0000   1.0000
     1.0000   1.0000   1.0000   1.0000   1.0000   1.0000   1.0000   1.0000
     1.0000   1.0000   1.0000   1.0000   1.0000   1.0000   1.0000   1.0000
     1.0000   1.0000   1.0000   1.0000   1.0000   1.0000   1.0000   1.0000
     1.0000   1.0000   1.0000   1.0000   1.0000   1.0000   1.0000   1.0000
     1.0000   1.0000   1.0000   1.0000   1.0000   1.0000   1.0000   1.0000
     1.0000   1.0000   1.0000   1.0000   1.0000   1.0000   1.0000   1.0000
     1.0000   1.0000   1.0000   1.0000   1.0000   1.0000   1.0000   1.0000
     1.0000   1.0000   1.0000   1.0000   1.0000   1.0000   1.0000   1.0000
     1.0000   1.0000   1.0000   1.0000   1.0000   1.0000   1.0000   1.0000
     1.0000   1.0000   1.0000   1.0000   1.0000   1.0000   1.0000   1.0000
     1.0000   1.0000   1.0000   1.0000   1.0000   1.0000   1.0000   1.0000
     1.0000   1.0000   1.0000   1.0000   1.0000   1.0000   1.0000   1.0000
     1.0000   1.0000   1.0000   1.0000   1.0000   1.0000   1.0000   1.0000
     1.0000   1.0000   1.0000   1.0000   1.0000   1.0000   1.0000   1.0000
     1.0000   1.0000   1.0000   1.0000   1.0000   1.0000   1.0000   1.0000
     1.0000   1.0000   1.0000   1.0000   1.0000   1.0000   1.0000   1.0000
     0.9999   0.9999   0.9997   0.9996   0.9994   0.9993   0.9983   0.9980
     0.9976   0.9975   0.9973   0.9970   0.9960   0.9952   0.9942   0.9935
     0.9890   0.9877   0.9861   0.9854   0.9824   0.9816   0.9805   0.9792
     0.9777   0.9760   0.9713   0.9705   0.9668   0.9643   0.9596   0.9524
     0.9318   0.9135   0.9062   0.9035   0.8904   0.8826   0.8744   0.8515
     0.8412   0.8391   0.8248   0.8122   0.8027   0.7658   0.7472   0.7406
     0.7383   0.7279   0.7164   0.7101   0.7023   0.6963   0.6849   0.6781
     0.6726   0.6687   0.6624   0.6563   0.3510   0.3236   0.2527   0.2419
     0.1297   0.1114   0.0981   0.0524   0.0151   0.0105   0.0055   0.0047
     0.0010   0.0009   0.0004   0.0003   0.0002   0.0001   0.0000   0.0000
     0.0000   0.0000   0.0000   0.0000   0.0000   0.0000   0.0000   0.0000
     0.0000   0.0000   0.0000   0.0000   0.0000   0.0000   0.0000   0.0000
     0.0000   0.0000   0.0000

     the Fermi energy is     3.3462 ev

!    total energy              =   -4441.65567399 Ry
     estimated scf accuracy    <          8.3E-09 Ry
     smearing contrib. (-TS)   =      -1.15512773 Ry
     internal energy E=F+TS    =   -4440.50054626 Ry

     The total energy is F=E-TS. E is the sum of the following terms:
     one-electron contribution =  -20804.81781246 Ry
     hartree contribution      =   10534.67115590 Ry
     xc contribution           =    -694.18163979 Ry
     ewald contribution        =    6799.99793692 Ry
     one-center paw contrib.   =    -276.17018682 Ry
      -> PAW hartree energy AE =      25.16894843 Ry
      -> PAW hartree energy PS =     -25.05278164 Ry
      -> PAW xc energy AE      =     -16.51835783 Ry
      -> PAW xc energy PS      =       6.87786060 Ry
      -> total E_H with PAW    =   10534.78732268 Ry
      -> total E_XC with PAW   =    -703.82213703 Ry

     convergence has been achieved in  47 iterations

     Writing all to output data dir /bsuhome/zayahcortright/scratch/pwscf.save/

     General routines

     Parallel routines

     PAW routines

   This run was terminated on:  18:22: 7  21Jun2024

   JOB DONE.