     Program PWSCF v.7.2 starts on 21Jun2024 at 20:12: 2

     Reading input from espresso.pwi
Warning: card &CELL ignored
Warning: card / ignored
Warning: card &FCP ignored
Warning: card / ignored
Warning: card &RISM ignored
Warning: card / ignored

     Current dimensions of program PWSCF are:
     Max number of different atomic species (ntypx) = 10
     Max number of k-points (npk) =  40000
     Max angular momentum in pseudopotentials (lmaxx) =  4
     file O.pbe-n-kjpaw_psl.0.1.UPF: wavefunction(s)  2P renormalized
     signal trapping enabled: kill the code with -SIGUSR1 to stop cleanly the simulation

     K-points division:     npool     =       2
     R & G space division:  proc/nbgrp/npool/nimage =      24
     Subspace diagonalization in iterative solution of the eigenvalue problem:
     one sub-group per band group will be used

     Using Slab Decomposition

     bravais-lattice index     =            0
     lattice parameter (alat)  =      14.8599  a.u.
     unit-cell volume          =    8305.1283 (a.u.)^3
     number of atoms/cell      =           49
     number of atomic types    =            3
     number of electrons       =       430.00
     number of Kohn-Sham states=          258
     kinetic-energy cutoff     =      60.0000  Ry
     charge density cutoff     =     480.0000  Ry
     scf convergence threshold =      1.0E-08
     mixing beta               =       0.1500
     number of iterations used =            8  local-TF  mixing
     Exchange-correlation= SLA  PW   PBE  PBE
                           (   1   4   3   4   0   0   0)

     celldm(1)=  14.859904  celldm(2)=   0.000000  celldm(3)=   0.000000
     celldm(4)=   0.000000  celldm(5)=   0.000000  celldm(6)=   0.000000

     crystal axes: (cart. coord. in units of alat)
               a(1) = (   1.000000   0.000000   0.000000 )
               a(2) = (   0.000000   1.000000   0.000000 )
               a(3) = (   0.000000   0.000000   2.531036 )

     reciprocal axes: (cart. coord. in units 2 pi/alat)
               b(1) = (  1.000000  0.000000  0.000000 )
               b(2) = (  0.000000  1.000000  0.000000 )
               b(3) = (  0.000000  0.000000  0.395095 )

     PseudoPot. # 1 for Sr read from file:
     /bsuhome/zayahcortright/q-e/pseudo/Sr_pbe_v1.uspp.F.UPF
     MD5 check sum: 6b418c05fbe9db5448babca5e47b7a5b
     Pseudo is Ultrasoft + core correction, Zval = 10.0
     Generated by new atomic code, or converted to UPF format
     Using radial grid of  883 points,  6 beta functions with:
                l(1) =   0
                l(2) =   0
                l(3) =   1
                l(4) =   1
                l(5) =   2
                l(6) =   2
     Q(r) pseudized with  6 coefficients,  rinner =    1.400   1.400   1.400
                                                       1.400   1.400

     PseudoPot. # 2 for O  read from file:
     /bsuhome/zayahcortright/q-e/pseudo/O.pbe-n-kjpaw_psl.0.1.UPF
     MD5 check sum: 0234752ac141de4415c5fc33072bef88
     Pseudo is Projector augmented-wave + core cor, Zval =  6.0
     Generated using "atomic" code by A. Dal Corso  v.5.0.99 svn rev. 10869
     Shape of augmentation charge: BESSEL
     Using radial grid of 1095 points,  4 beta functions with:
                l(1) =   0
                l(2) =   0
                l(3) =   1
                l(4) =   1
     Q(r) pseudized with 0 coefficients

     PseudoPot. # 3 for Co read from file:
     /bsuhome/zayahcortright/q-e/pseudo/Co_pbe_v1.2.uspp.F.UPF
     MD5 check sum: 5f91765df6ddd3222702df6e7b74a16d
     Pseudo is Ultrasoft + core correction, Zval = 17.0
     Generated by new atomic code, or converted to UPF format
     Using radial grid of  863 points,  6 beta functions with:
                l(1) =   0
                l(2) =   0
                l(3) =   1
                l(4) =   1
                l(5) =   2
                l(6) =   2
     Q(r) pseudized with  8 coefficients,  rinner =    1.200   1.200   1.200
                                                       1.200   1.200

     atomic species   valence    mass     pseudopotential
        Sr            10.00    87.62000     Sr( 1.00)
        O              6.00    15.99900     O ( 1.00)
        Co            17.00    58.93319     Co( 1.00)

     No symmetry found

                                    s                        frac. trans.

      isym =  1     identity

 cryst.   s( 1) = (     1          0          0      )
                  (     0          1          0      )
                  (     0          0          1      )

 cart.    s( 1) = (  1.0000000  0.0000000  0.0000000 )
                  (  0.0000000  1.0000000  0.0000000 )
                  (  0.0000000  0.0000000  1.0000000 )

   Cartesian axes

     site n.     atom                  positions (alat units)
         1           Sr  tau(   1) = (   0.2508693   0.7491307   1.7574407  )
         2           O   tau(   2) = (   0.4985141   0.5014859   1.7715967  )
         3           Sr  tau(   3) = (   0.7482398   0.7454518   1.7648669  )
         4           Sr  tau(   4) = (   0.7441748   0.2558252   1.7667843  )
         5           Sr  tau(   5) = (   0.2508693   0.7491307   1.2696799  )
         6           Sr  tau(   6) = (   0.2508693   0.7491307   0.7632319  )
         7           Co  tau(   7) = (   0.4998914   0.5001086   1.0164559  )
         8           Co  tau(   8) = (   0.4936915   0.5063085   1.5135603  )
         9           O   tau(   9) = (   0.4988895   0.7610401   1.0164559  )
        10           O   tau(  10) = (   0.2389599   0.5011105   1.0164559  )
        11           O   tau(  11) = (   0.0070918   0.7374880   1.0164559  )
        12           O   tau(  12) = (   0.0088340   0.7405089   1.5135603  )
        13           O   tau(  13) = (   0.5066944   0.7415376   1.5135603  )
        14           O   tau(  14) = (   0.2584624   0.4933056   1.5135603  )
        15           O   tau(  15) = (   0.4985141   0.5014859   0.7773880  )
        16           O   tau(  16) = (   0.4985141   0.5014859   1.2555238  )
        17           Sr  tau(  17) = (   0.7482398   0.7454518   0.7706582  )
        18           Sr  tau(  18) = (   0.7482398   0.7454518   1.2622536  )
        19           Sr  tau(  19) = (   0.7441748   0.2558252   0.7725755  )
        20           Sr  tau(  20) = (   0.7441748   0.2558252   1.2603363  )
        21           O   tau(  21) = (   0.7322655   0.0078049   1.5135603  )
        22           O   tau(  22) = (   0.7558175   0.4996027   1.5135603  )
        23           O   tau(  23) = (   0.5003973   0.2441825   1.5135603  )
        24           O   tau(  24) = (   0.7527966   0.4978604   1.0164559  )
        25           O   tau(  25) = (   0.5021396   0.2472034   1.0164559  )
        26           O   tau(  26) = (   0.7517679   0.0000000   1.0164559  )
        27           O   tau(  27) = (   0.0114961   0.4948124   1.7455321  )
        28           O   tau(  28) = (   0.0048226   0.0077944   1.7715967  )
        29           Sr  tau(  29) = (   0.2545482   0.2517602   1.7648669  )
        30           O   tau(  30) = (   0.5048017   0.0015068   1.7786929  )
        31           Co  tau(  31) = (   0.0056869   0.5006215   1.0164559  )
        32           Co  tau(  32) = (   0.0065315   0.4997770   1.5135603  )
        33           Co  tau(  33) = (   0.0061999   0.0064171   1.0164559  )
        34           Co  tau(  34) = (   0.0000000   0.0126169   1.5135603  )
        35           O   tau(  35) = (   0.0114961   0.4948124   1.2815885  )
        36           O   tau(  36) = (   0.0114961   0.4948124   0.7513233  )
        37           O   tau(  37) = (   0.0051979   0.2673486   1.0164559  )
        38           O   tau(  38) = (   0.0130029   0.2478461   1.5135603  )
        39           O   tau(  39) = (   0.0048226   0.0077944   0.7773880  )
        40           O   tau(  40) = (   0.0048226   0.0077944   1.2555238  )
        41           Sr  tau(  41) = (   0.2545482   0.2517602   0.7706582  )
        42           Sr  tau(  42) = (   0.2545482   0.2517602   1.2622536  )
        43           Co  tau(  43) = (   0.4989925   0.0073160   1.5135603  )
        44           Co  tau(  44) = (   0.4998370   0.0064714   1.0164559  )
        45           O   tau(  45) = (   0.5048017   0.0015068   0.7844841  )
        46           O   tau(  46) = (   0.5048017   0.0015068   1.2484277  )
        47           O   tau(  47) = (   0.2621260   0.0059111   1.5135603  )
        48           O   tau(  48) = (   0.2591051   0.0041689   1.0164559  )
        49           O   tau(  49) = (   0.4264937   0.5686583   2.1602013  )

   Crystallographic axes

     site n.     atom                  positions (cryst. coord.)
         1           Sr  tau(   1) = (  0.2508693  0.7491307  0.6943562  )
         2           O   tau(   2) = (  0.4985141  0.5014859  0.6999492  )
         3           Sr  tau(   3) = (  0.7482398  0.7454518  0.6972903  )
         4           Sr  tau(   4) = (  0.7441748  0.2558252  0.6980478  )
         5           Sr  tau(   5) = (  0.2508693  0.7491307  0.5016443  )
         6           Sr  tau(   6) = (  0.2508693  0.7491307  0.3015492  )
         7           Co  tau(   7) = (  0.4998914  0.5001086  0.4015968  )
         8           Co  tau(   8) = (  0.4936915  0.5063085  0.5980003  )
         9           O   tau(   9) = (  0.4988895  0.7610401  0.4015968  )
        10           O   tau(  10) = (  0.2389599  0.5011105  0.4015968  )
        11           O   tau(  11) = (  0.0070918  0.7374880  0.4015968  )
        12           O   tau(  12) = (  0.0088340  0.7405089  0.5980003  )
        13           O   tau(  13) = (  0.5066944  0.7415376  0.5980003  )
        14           O   tau(  14) = (  0.2584624  0.4933056  0.5980003  )
        15           O   tau(  15) = (  0.4985141  0.5014859  0.3071422  )
        16           O   tau(  16) = (  0.4985141  0.5014859  0.4960513  )
        17           Sr  tau(  17) = (  0.7482398  0.7454518  0.3044833  )
        18           Sr  tau(  18) = (  0.7482398  0.7454518  0.4987103  )
        19           Sr  tau(  19) = (  0.7441748  0.2558252  0.3052408  )
        20           Sr  tau(  20) = (  0.7441748  0.2558252  0.4979527  )
        21           O   tau(  21) = (  0.7322655  0.0078049  0.5980003  )
        22           O   tau(  22) = (  0.7558175  0.4996027  0.5980003  )
        23           O   tau(  23) = (  0.5003973  0.2441825  0.5980003  )
        24           O   tau(  24) = (  0.7527966  0.4978604  0.4015968  )
        25           O   tau(  25) = (  0.5021396  0.2472034  0.4015968  )
        26           O   tau(  26) = (  0.7517679  0.0000000  0.4015968  )
        27           O   tau(  27) = (  0.0114961  0.4948124  0.6896512  )
        28           O   tau(  28) = (  0.0048226  0.0077944  0.6999492  )
        29           Sr  tau(  29) = (  0.2545482  0.2517602  0.6972903  )
        30           O   tau(  30) = (  0.5048017  0.0015068  0.7027529  )
        31           Co  tau(  31) = (  0.0056869  0.5006215  0.4015968  )
        32           Co  tau(  32) = (  0.0065315  0.4997770  0.5980003  )
        33           Co  tau(  33) = (  0.0061999  0.0064171  0.4015968  )
        34           Co  tau(  34) = (  0.0000000  0.0126169  0.5980003  )
        35           O   tau(  35) = (  0.0114961  0.4948124  0.5063494  )
        36           O   tau(  36) = (  0.0114961  0.4948124  0.2968442  )
        37           O   tau(  37) = (  0.0051979  0.2673486  0.4015968  )
        38           O   tau(  38) = (  0.0130029  0.2478461  0.5980003  )
        39           O   tau(  39) = (  0.0048226  0.0077944  0.3071422  )
        40           O   tau(  40) = (  0.0048226  0.0077944  0.4960513  )
        41           Sr  tau(  41) = (  0.2545482  0.2517602  0.3044833  )
        42           Sr  tau(  42) = (  0.2545482  0.2517602  0.4987103  )
        43           Co  tau(  43) = (  0.4989925  0.0073160  0.5980003  )
        44           Co  tau(  44) = (  0.4998370  0.0064714  0.4015968  )
        45           O   tau(  45) = (  0.5048017  0.0015068  0.3099459  )
        46           O   tau(  46) = (  0.5048017  0.0015068  0.4932477  )
        47           O   tau(  47) = (  0.2621260  0.0059111  0.5980003  )
        48           O   tau(  48) = (  0.2591051  0.0041689  0.4015968  )
        49           O   tau(  49) = (  0.4264937  0.5686583  0.8534850  )

     number of k points=    10  Gaussian smearing, width (Ry)=  0.0700
                       cart. coord. in units 2pi/alat
        k(    1) = (   0.0000000   0.0000000   0.0000000), wk =   0.1250000
        k(    2) = (   0.0000000   0.2500000   0.0000000), wk =   0.2500000
        k(    3) = (   0.0000000  -0.5000000   0.0000000), wk =   0.1250000
        k(    4) = (   0.2500000   0.2500000   0.0000000), wk =   0.2500000
        k(    5) = (   0.2500000  -0.5000000   0.0000000), wk =   0.2500000
        k(    6) = (  -0.5000000  -0.5000000   0.0000000), wk =   0.1250000
        k(    7) = (   0.2500000   0.0000000   0.0000000), wk =   0.2500000
        k(    8) = (  -0.5000000   0.0000000   0.0000000), wk =   0.1250000
        k(    9) = (  -0.2500000   0.2500000   0.0000000), wk =   0.2500000
        k(   10) = (  -0.5000000   0.2500000   0.0000000), wk =   0.2500000

                       cryst. coord.
        k(    1) = (   0.0000000   0.0000000   0.0000000), wk =   0.1250000
        k(    2) = (   0.0000000   0.2500000   0.0000000), wk =   0.2500000
        k(    3) = (   0.0000000  -0.5000000   0.0000000), wk =   0.1250000
        k(    4) = (   0.2500000   0.2500000   0.0000000), wk =   0.2500000
        k(    5) = (   0.2500000  -0.5000000   0.0000000), wk =   0.2500000
        k(    6) = (  -0.5000000  -0.5000000   0.0000000), wk =   0.1250000
        k(    7) = (   0.2500000   0.0000000   0.0000000), wk =   0.2500000
        k(    8) = (  -0.5000000   0.0000000   0.0000000), wk =   0.1250000
        k(    9) = (  -0.2500000   0.2500000   0.0000000), wk =   0.2500000
        k(   10) = (  -0.5000000   0.2500000   0.0000000), wk =   0.2500000

     Check: negative core charge=   -0.000004

     Initial potential from superposition of free atoms

     starting charge     421.5961, renormalised to     430.0000

     negative rho (up, down):  7.826E-01 0.000E+00
     Starting wfcs are  376 randomized atomic wfcs
     Checking if some PAW data can be deallocated...

     Self-consistent Calculation

     iteration #  1     ecut=    60.00 Ry     beta= 0.15
     Davidson diagonalization with overlap

     ethr =  1.00E-02,  avg # of iterations =  2.0

     negative rho (up, down):  7.717E-01 0.000E+00

     total energy              =   -4445.23948116 Ry
     estimated scf accuracy    <      54.04140758 Ry

[...]

     c_bands:  1 eigenvalues not converged
     ethr =  1.15E-04,  avg # of iterations =  9.8

[...]

     c_bands:  1 eigenvalues not converged
     c_bands:  1 eigenvalues not converged
     ethr =  5.43E-08,  avg # of iterations =  9.1

[...]

     total energy              =   -4440.29553671 Ry
     estimated scf accuracy    <       0.00000001 Ry

     iteration # 51     ecut=    60.00 Ry     beta= 0.15
     Davidson diagonalization with overlap

     ethr =  3.29E-12,  avg # of iterations =  2.7

     negative rho (up, down):  7.926E-01 0.000E+00

     End of self-consistent calculation

          k = 0.0000 0.0000 0.0000 ( 65197 PWs)   bands (ev):

   -92.8634 -92.8120 -92.7174 -92.6707 -92.6100 -92.5706 -92.5522 -92.4295
   -56.2170 -56.1988 -56.0744 -56.0638 -56.0568 -56.0507 -56.0148 -55.9864
   -55.9710 -55.9706 -55.9631 -55.9179 -55.9019 -55.8629 -55.8441 -55.8064
   -55.8063 -55.7577 -55.7561 -55.7552 -55.7468 -55.7042 -55.6824 -55.5957
   -31.4276 -31.4074 -31.2668 -31.2002 -31.1794 -31.1605 -30.8930 -30.8747
   -30.0085 -29.9647 -29.9402 -29.8311 -15.2400 -15.1944 -15.1154 -14.9844
   -14.7892 -14.6637 -14.3764 -14.3567 -14.3265 -14.2825 -14.2328 -14.2249
   -14.2133 -14.1937 -14.1672 -14.1385 -14.0891 -13.9369 -13.7558 -13.7232
   -13.6946 -13.6620 -13.6449 -13.5843 -13.5517 -13.4702 -13.4027 -13.2821
   -13.2601 -13.2505 -13.2256 -13.2078 -13.2044 -13.1571 -13.1531 -13.1356
   -13.1063 -13.0731 -13.0545 -13.0443 -13.0207 -13.0114 -12.9140 -12.8864
   -12.8645 -12.7943 -12.7500 -12.7261 -12.4937 -12.3481 -12.1667 -12.0884
   -12.0216 -11.9785 -11.9476 -11.9369 -11.9135 -11.8962 -11.8325 -11.8155
   -11.7801 -11.7518 -11.6397 -11.5602 -11.5565  -3.1014  -2.8697  -2.6395
    -2.4930  -2.4301  -2.2885  -1.9805  -1.9662  -1.9475  -1.8622  -1.8425
    -1.7735  -1.7570  -1.7151  -1.6742  -1.4913  -1.2669  -1.2353  -1.0909
    -1.0764  -1.0289  -1.0116  -0.9640  -0.9471  -0.8942  -0.8671  -0.7901
    -0.7815  -0.7071  -0.5718  -0.5582  -0.5322  -0.4518  -0.4176  -0.4162
    -0.3569  -0.2871  -0.2254  -0.1895  -0.1600  -0.0816  -0.0283   0.0220
     0.0408   0.0616   0.3162   0.3315   0.5033   0.5684   0.6360   0.6852
     0.7673   0.7804   0.7933   0.8658   0.8918   0.9253   0.9837   1.1131
     1.1748   1.1949   1.2166   1.2333   1.2922   1.3602   1.4745   1.4850
     1.5534   1.5600   1.6064   1.6186   1.6319   1.6865   1.7479   1.7578
     1.7990   1.8287   1.8684   2.0012   2.0936   2.1286   2.1408   2.2974
     2.3084   2.3509   2.3553   2.4609   2.4966   2.5224   2.5424   2.5580
     2.6178   2.6331   2.6458   2.6715   2.7489   2.7801   2.7934   2.7977
     2.8646   2.8711   2.8930   2.9003   2.9105   2.9228   2.9291   2.9436
     2.9519   2.9608   2.9695   2.9853   2.9967   3.0172   3.0225   3.0350
     3.0725   3.1776   3.2747   3.9610   4.2795   4.6260   4.8396   4.9009
     5.7698   5.8338   5.8456   5.8522   6.1536   6.2004   6.4463   6.4554
     6.9506   6.9897   7.0856   7.1770   7.4518   7.4847   7.5597   7.5763
     7.6174   7.7897   7.8887   8.0422   8.0456   8.1299   8.3511   8.4676
     8.7481   8.9370

     occupation numbers
     1.0000   1.0000   1.0000   1.0000   1.0000   1.0000   1.0000   1.0000
     1.0000   1.0000   1.0000   1.0000   1.0000   1.0000   1.0000   1.0000
     1.0000   1.0000   1.0000   1.0000   1.0000   1.0000   1.0000   1.0000
     1.0000   1.0000   1.0000   1.0000   1.0000   1.0000   1.0000   1.0000
     1.0000   1.0000   1.0000   1.0000   1.0000   1.0000   1.0000   1.0000
     1.0000   1.0000   1.0000   1.0000   1.0000   1.0000   1.0000   1.0000
     1.0000   1.0000   1.0000   1.0000   1.0000   1.0000   1.0000   1.0000
     1.0000   1.0000   1.0000   1.0000   1.0000   1.0000   1.0000   1.0000
     1.0000   1.0000   1.0000   1.0000   1.0000   1.0000   1.0000   1.0000
     1.0000   1.0000   1.0000   1.0000   1.0000   1.0000   1.0000   1.0000
     1.0000   1.0000   1.0000   1.0000   1.0000   1.0000   1.0000   1.0000
     1.0000   1.0000   1.0000   1.0000   1.0000   1.0000   1.0000   1.0000
     1.0000   1.0000   1.0000   1.0000   1.0000   1.0000   1.0000   1.0000
     1.0000   1.0000   1.0000   1.0000   1.0000   1.0000   1.0000   1.0000
     1.0000   1.0000   1.0000   1.0000   1.0000   1.0000   1.0000   1.0000
     1.0000   1.0000   1.0000   1.0000   1.0000   1.0000   1.0000   1.0000
     1.0000   1.0000   1.0000   1.0000   1.0000   1.0000   1.0000   1.0000
     1.0000   1.0000   1.0000   1.0000   1.0000   1.0000   1.0000   1.0000
     1.0000   1.0000   1.0000   1.0000   1.0000   1.0000   1.0000   1.0000
     1.0000   1.0000   1.0000   1.0000   1.0000   0.9999   0.9999   0.9999
     0.9998   0.9998   0.9998   0.9997   0.9996   0.9996   0.9994   0.9988
     0.9984   0.9983   0.9981   0.9979   0.9973   0.9963   0.9940   0.9937
     0.9917   0.9914   0.9897   0.9892   0.9886   0.9859   0.9823   0.9817
     0.9788   0.9764   0.9729   0.9580   0.9442   0.9381   0.9359   0.9012
     0.8984   0.8867   0.8854   0.8522   0.8396   0.8301   0.8225   0.8164
     0.7919   0.7853   0.7798   0.7683   0.7318   0.7163   0.7096   0.7074
     0.6723   0.6689   0.6570   0.6530   0.6474   0.6406   0.6370   0.6290
     0.6243   0.6193   0.6144   0.6053   0.5988   0.5870   0.5839   0.5767
     0.5548   0.4927   0.4354   0.1187   0.0490   0.0150   0.0065   0.0050
     0.0001   0.0000   0.0000   0.0000   0.0000   0.0000   0.0000   0.0000
     0.0000   0.0000   0.0000   0.0000   0.0000   0.0000   0.0000   0.0000
     0.0000   0.0000   0.0000   0.0000   0.0000   0.0000   0.0000   0.0000
     0.0000   0.0000

[...]

          k =-0.5000-0.5000 0.0000 ( 65132 PWs)   bands (ev):

[...]

          k = 0.2500 0.0000 0.0000 ( 65257 PWs)   bands (ev):

[...]

          k =-0.5000 0.2500 0.0000 ( 65138 PWs)   bands (ev):

   -92.8634 -92.8120 -92.7174 -92.6707 -92.6100 -92.5706 -92.5522 -92.4295
   -56.2170 -56.1988 -56.0744 -56.0638 -56.0568 -56.0507 -56.0148 -55.9864
   -55.9710 -55.9706 -55.9631 -55.9179 -55.9019 -55.8629 -55.8441 -55.8064
   -55.8063 -55.7577 -55.7561 -55.7552 -55.7468 -55.7042 -55.6824 -55.5956
   -31.4238 -31.4109 -31.2663 -31.1993 -31.1803 -31.1611 -30.8913 -30.8769
   -30.0059 -29.9664 -29.9401 -29.8322 -15.1401 -15.0941 -15.0153 -14.9162
   -14.8751 -14.7501 -14.6566 -14.5298 -14.2237 -14.1917 -14.1795 -14.1313
   -14.1106 -14.0879 -14.0514 -14.0436 -14.0212 -13.9815 -13.9713 -13.8613
   -13.7932 -13.7448 -13.7392 -13.7224 -13.6222 -13.5891 -13.4972 -13.4618
   -13.3495 -13.3154 -13.2182 -13.1773 -13.1665 -13.1531 -13.1389 -13.1064
   -13.0906 -13.0659 -13.0284 -12.9717 -12.8616 -12.8415 -12.8067 -12.7784
   -12.7725 -12.7625 -12.6897 -12.5459 -12.4734 -12.4173 -12.3054 -12.2708
   -11.9790 -11.9314 -11.9187 -11.9045 -11.8926 -11.8708 -11.8405 -11.7609
   -11.7524 -11.7293 -11.6925 -11.6645 -11.6562  -2.5982  -2.5568  -2.4094
    -2.3672  -2.2049  -2.1293  -1.9874  -1.8527  -1.7952  -1.7688  -1.7292
    -1.6912  -1.6104  -1.4950  -1.4375  -1.4149  -1.3891  -1.3110  -1.2841
    -1.2434  -1.2278  -1.1668  -1.1367  -1.0987  -1.0637  -1.0346  -0.9762
    -0.9486  -0.9072  -0.8718  -0.7677  -0.7379  -0.6488  -0.5916  -0.5575
    -0.5002  -0.4176  -0.3806  -0.2836  -0.2298  -0.1847  -0.1245  -0.1007
    -0.0319  -0.0121   0.0197   0.0724   0.1135   0.4305   0.5197   0.5489
     0.5708   0.8682   0.9189   0.9939   1.0195   1.1924   1.2296   1.2667
     1.2769   1.2955   1.3131   1.3845   1.4271   1.4747   1.4983   1.6390
     1.6716   1.6888   1.6987   1.7429   1.7681   1.7809   1.7930   1.8131
     1.8393   1.8774   1.8940   1.9281   1.9506   1.9844   2.0387   2.1606
     2.2642   2.2895   2.3569   2.3923   2.4540   2.4912   2.4971   2.5378
     2.5562   2.5886   2.6161   2.6327   2.6752   2.6784   2.7245   2.7346
     2.7483   2.7594   2.7810   2.7937   2.8145   2.8234   2.8432   2.8552
     2.8673   2.8730   2.8850   2.8950   3.4237   3.4917   3.6128   3.6378
     3.9086   4.0139   4.0611   4.2563   4.6322   4.7438   4.8934   4.9569
     5.2552   5.2870   5.5146   5.5798   5.6337   5.6568   6.3498   6.3661
     6.4641   6.8077   7.1749   7.6184   7.6874   7.7246   7.7475   7.7738
     7.8607   7.9283   8.1621   8.2961   8.4276   8.4456   8.5214   8.5819
     8.6585   8.7118

     occupation numbers
     1.0000   1.0000   1.0000   1.0000   1.0000   1.0000   1.0000   1.0000
     1.0000   1.0000   1.0000   1.0000   1.0000   1.0000   1.0000   1.0000
     1.0000   1.0000   1.0000   1.0000   1.0000   1.0000   1.0000   1.0000
     1.0000   1.0000   1.0000   1.0000   1.0000   1.0000   1.0000   1.0000
     1.0000   1.0000   1.0000   1.0000   1.0000   1.0000   1.0000   1.0000
     1.0000   1.0000   1.0000   1.0000   1.0000   1.0000   1.0000   1.0000
     1.0000   1.0000   1.0000   1.0000   1.0000   1.0000   1.0000   1.0000
     1.0000   1.0000   1.0000   1.0000   1.0000   1.0000   1.0000   1.0000
     1.0000   1.0000   1.0000   1.0000   1.0000   1.0000   1.0000   1.0000
     1.0000   1.0000   1.0000   1.0000   1.0000   1.0000   1.0000   1.0000
     1.0000   1.0000   1.0000   1.0000   1.0000   1.0000   1.0000   1.0000
     1.0000   1.0000   1.0000   1.0000   1.0000   1.0000   1.0000   1.0000
     1.0000   1.0000   1.0000   1.0000   1.0000   1.0000   1.0000   1.0000
     1.0000   1.0000   1.0000   1.0000   1.0000   1.0000   1.0000   1.0000
     1.0000   1.0000   1.0000   1.0000   1.0000   1.0000   1.0000   1.0000
     1.0000   1.0000   1.0000   1.0000   1.0000   1.0000   1.0000   1.0000
     1.0000   1.0000   1.0000   1.0000   1.0000   1.0000   1.0000   1.0000
     1.0000   1.0000   1.0000   1.0000   1.0000   1.0000   1.0000   1.0000
     1.0000   1.0000   1.0000   1.0000   1.0000   1.0000   1.0000   1.0000
     1.0000   1.0000   1.0000   1.0000   1.0000   1.0000   1.0000   0.9999
     0.9999   0.9997   0.9996   0.9994   0.9993   0.9983   0.9980   0.9976
     0.9975   0.9973   0.9970   0.9959   0.9951   0.9940   0.9933   0.9883
     0.9867   0.9858   0.9853   0.9827   0.9810   0.9801   0.9792   0.9777
     0.9755   0.9721   0.9705   0.9669   0.9644   0.9602   0.9528   0.9321
     0.9095   0.9033   0.8850   0.8745   0.8545   0.8416   0.8394   0.8243
     0.8171   0.8041   0.7926   0.7855   0.7666   0.7651   0.7436   0.7388
     0.7321   0.7266   0.7158   0.7094   0.6987   0.6941   0.6837   0.6774
     0.6709   0.6679   0.6613   0.6559   0.3506   0.3139   0.2531   0.2415
     0.1349   0.1038   0.0917   0.0526   0.0147   0.0095   0.0051   0.0039
     0.0010   0.0008   0.0002   0.0002   0.0001   0.0001   0.0000   0.0000
     0.0000   0.0000   0.0000   0.0000   0.0000   0.0000   0.0000   0.0000
     0.0000   0.0000   0.0000   0.0000   0.0000   0.0000   0.0000   0.0000
     0.0000   0.0000

     the Fermi energy is     3.1652 ev

!    total energy              =   -4440.29553672 Ry
     estimated scf accuracy    <          8.4E-09 Ry
     smearing contrib. (-TS)   =      -1.20643661 Ry
     internal energy E=F+TS    =   -4439.08910011 Ry

     The total energy is F=E-TS. E is the sum of the following terms:
     one-electron contribution =  -20890.68651125 Ry
     hartree contribution      =   10574.61463731 Ry
     xc contribution           =    -693.24418346 Ry
     ewald contribution        =    6846.41889554 Ry
     one-center paw contrib.   =    -276.19193825 Ry
      -> PAW hartree energy AE =      25.02483365 Ry
      -> PAW hartree energy PS =     -24.91037357 Ry
      -> PAW xc energy AE      =     -16.49759399 Ry
      -> PAW xc energy PS      =       6.85618520 Ry
      -> total E_H with PAW    =   10574.72909739 Ry
      -> total E_XC with PAW   =    -702.88559226 Ry

     convergence has been achieved in  51 iterations

     Writing all to output data dir /bsuhome/zayahcortright/scratch/pwscf.save/

     General routines

     Parallel routines

     PAW routines

   This run was terminated on:  20:25: 1  21Jun2024

   JOB DONE.