     Program PWSCF v.7.2 starts on 22Jun2024 at  1:50: 0

     Reading input from espresso.pwi
Warning: card &CELL ignored
Warning: card / ignored
Warning: card &FCP ignored
Warning: card / ignored
Warning: card &RISM ignored
Warning: card / ignored

     Current dimensions of program PWSCF are:
     Max number of different atomic species (ntypx) = 10
     Max number of k-points (npk) =  40000
     Max angular momentum in pseudopotentials (lmaxx) =  4
     file O.pbe-n-kjpaw_psl.0.1.UPF: wavefunction(s)  2P renormalized
     signal trapping enabled: kill the code with -SIGUSR1 to stop cleanly the simulation

     K-points division:     npool     =       2
     R & G space division:  proc/nbgrp/npool/nimage =      24
     Subspace diagonalization in iterative solution of the eigenvalue problem:
     one sub-group per band group will be used

     Using Slab Decomposition

     bravais-lattice index     =            0
     lattice parameter (alat)  =      14.8599  a.u.
     unit-cell volume          =    8305.1283 (a.u.)^3
     number of atoms/cell      =           50
     number of atomic types    =            4
     number of electrons       =       431.00
     number of Kohn-Sham states=          259
     kinetic-energy cutoff     =      60.0000  Ry
     charge density cutoff     =     480.0000  Ry
     scf convergence threshold =      1.0E-08
     mixing beta               =       0.1500
     number of iterations used =            8  local-TF  mixing
     Exchange-correlation= PBE
                           (   1   4   3   4   0   0   0)

     celldm(1)=  14.859904  celldm(2)=   0.000000  celldm(3)=   0.000000
     celldm(4)=   0.000000  celldm(5)=   0.000000  celldm(6)=   0.000000

     crystal axes: (cart. coord. in units of alat)
               a(1) = (   1.000000   0.000000   0.000000 )
               a(2) = (   0.000000   1.000000   0.000000 )
               a(3) = (   0.000000   0.000000   2.531036 )

     reciprocal axes: (cart. coord. in units 2 pi/alat)
               b(1) = (  1.000000  0.000000  0.000000 )
               b(2) = (  0.000000  1.000000  0.000000 )
               b(3) = (  0.000000  0.000000  0.395095 )

     PseudoPot. # 1 for Sr read from file:
     /bsuhome/zayahcortright/q-e/pseudo/Sr_pbe_v1.uspp.F.UPF
     MD5 check sum: 6b418c05fbe9db5448babca5e47b7a5b
     Pseudo is Ultrasoft + core correction, Zval = 10.0
     Generated by new atomic code, or converted to UPF format
     Using radial grid of  883 points,  6 beta functions with:
                l(1) =   0
                l(2) =   0
                l(3) =   1
                l(4) =   1
                l(5) =   2
                l(6) =   2
     Q(r) pseudized with  6 coefficients,  rinner =    1.400   1.400   1.400
                                                       1.400   1.400

     PseudoPot. # 2 for O  read from file:
     /bsuhome/zayahcortright/q-e/pseudo/O.pbe-n-kjpaw_psl.0.1.UPF
     MD5 check sum: 0234752ac141de4415c5fc33072bef88
     Pseudo is Projector augmented-wave + core cor, Zval =  6.0
     Generated using "atomic" code by A. Dal Corso  v.5.0.99 svn rev. 10869
     Shape of augmentation charge: BESSEL
     Using radial grid of 1095 points,  4 beta functions with:
                l(1) =   0
                l(2) =   0
                l(3) =   1
                l(4) =   1
     Q(r) pseudized with 0 coefficients

     PseudoPot. # 3 for Co read from file:
     /bsuhome/zayahcortright/q-e/pseudo/Co_pbe_v1.2.uspp.F.UPF
     MD5 check sum: 5f91765df6ddd3222702df6e7b74a16d
     Pseudo is Ultrasoft + core correction, Zval = 17.0
     Generated by new atomic code, or converted to UPF format
     Using radial grid of  863 points,  6 beta functions with:
                l(1) =   0
                l(2) =   0
                l(3) =   1
                l(4) =   1
                l(5) =   2
                l(6) =   2
     Q(r) pseudized with  8 coefficients,  rinner =    1.200   1.200   1.200
                                                       1.200   1.200

     PseudoPot. # 4 for H  read from file:
     /bsuhome/zayahcortright/q-e/pseudo/H.pbe-rrkjus_psl.1.0.0.UPF
     MD5 check sum: f52b6d4d1c606e5624b1dc7b2218f220
     Pseudo is Ultrasoft, Zval =  1.0
     Generated using "atomic" code by A. Dal Corso  v.5.1
     Using radial grid of  929 points,  2 beta functions with:
                l(1) =   0
                l(2) =   0
     Q(r) pseudized with 0 coefficients

     atomic species   valence    mass     pseudopotential
        Sr            10.00    87.62000     Sr( 1.00)
        O              6.00    15.99900     O ( 1.00)
        Co            17.00    58.93319     Co( 1.00)
        H              1.00     1.00800     H ( 1.00)

     No symmetry found

                                    s                        frac. trans.

      isym =  1     identity

 cryst.   s( 1) = (     1          0          0      )
                  (     0          1          0      )
                  (     0          0          1      )

 cart.    s( 1) = (  1.0000000  0.0000000  0.0000000 )
                  (  0.0000000  1.0000000  0.0000000 )
                  (  0.0000000  0.0000000  1.0000000 )

   Cartesian axes

     site n.     atom                  positions (alat units)
         1           Sr  tau(   1) = (   0.2508693   0.7491307   1.7574407  )
         2           O   tau(   2) = (   0.4985141   0.5014859   1.7715967  )
         3           Sr  tau(   3) = (   0.7482398   0.7454518   1.7648669  )
         4           Sr  tau(   4) = (   0.7441748   0.2558252   1.7667843  )
         5           Sr  tau(   5) = (   0.2508693   0.7491307   1.2696799  )
         6           Sr  tau(   6) = (   0.2508693   0.7491307   0.7632319  )
         7           Co  tau(   7) = (   0.4998914   0.5001086   1.0164559  )
         8           Co  tau(   8) = (   0.4936915   0.5063085   1.5135603  )
         9           O   tau(   9) = (   0.4988895   0.7610401   1.0164559  )
        10           O   tau(  10) = (   0.2389599   0.5011105   1.0164559  )
        11           O   tau(  11) = (   0.0070918   0.7374880   1.0164559  )
        12           O   tau(  12) = (   0.0088340   0.7405089   1.5135603  )
        13           O   tau(  13) = (   0.5066944   0.7415376   1.5135603  )
        14           O   tau(  14) = (   0.2584624   0.4933056   1.5135603  )
        15           O   tau(  15) = (   0.4985141   0.5014859   0.7773880  )
        16           O   tau(  16) = (   0.4985141   0.5014859   1.2555238  )
        17           Sr  tau(  17) = (   0.7482398   0.7454518   0.7706582  )
        18           Sr  tau(  18) = (   0.7482398   0.7454518   1.2622536  )
        19           Sr  tau(  19) = (   0.7441748   0.2558252   0.7725755  )
        20           Sr  tau(  20) = (   0.7441748   0.2558252   1.2603363  )
        21           O   tau(  21) = (   0.7322655   0.0078049   1.5135603  )
        22           O   tau(  22) = (   0.7558175   0.4996027   1.5135603  )
        23           O   tau(  23) = (   0.5003973   0.2441825   1.5135603  )
        24           O   tau(  24) = (   0.7527966   0.4978604   1.0164559  )
        25           O   tau(  25) = (   0.5021396   0.2472034   1.0164559  )
        26           O   tau(  26) = (   0.7517679   0.0000000   1.0164559  )
        27           O   tau(  27) = (   0.0114961   0.4948124   1.7455321  )
        28           O   tau(  28) = (   0.0048226   0.0077944   1.7715967  )
        29           Sr  tau(  29) = (   0.2545482   0.2517602   1.7648669  )
        30           O   tau(  30) = (   0.5048017   0.0015068   1.7786929  )
        31           Co  tau(  31) = (   0.0056869   0.5006215   1.0164559  )
        32           Co  tau(  32) = (   0.0065315   0.4997770   1.5135603  )
        33           Co  tau(  33) = (   0.0061999   0.0064171   1.0164559  )
        34           Co  tau(  34) = (   0.0000000   0.0126169   1.5135603  )
        35           O   tau(  35) = (   0.0114961   0.4948124   1.2815885  )
        36           O   tau(  36) = (   0.0114961   0.4948124   0.7513233  )
        37           O   tau(  37) = (   0.0051979   0.2673486   1.0164559  )
        38           O   tau(  38) = (   0.0130029   0.2478461   1.5135603  )
        39           O   tau(  39) = (   0.0048226   0.0077944   0.7773880  )
        40           O   tau(  40) = (   0.0048226   0.0077944   1.2555238  )
        41           Sr  tau(  41) = (   0.2545482   0.2517602   0.7706582  )
        42           Sr  tau(  42) = (   0.2545482   0.2517602   1.2622536  )
        43           Co  tau(  43) = (   0.4989925   0.0073160   1.5135603  )
        44           Co  tau(  44) = (   0.4998370   0.0064714   1.0164559  )
        45           O   tau(  45) = (   0.5048017   0.0015068   0.7844841  )
        46           O   tau(  46) = (   0.5048017   0.0015068   1.2484277  )
        47           O   tau(  47) = (   0.2621260   0.0059111   1.5135603  )
        48           O   tau(  48) = (   0.2591051   0.0041689   1.0164559  )
        49           O   tau(  49) = (   0.8529874   0.0000000   2.1602013  )
        50           H   tau(  50) = (   0.8529874   0.0000000   2.2847091  )

   Crystallographic axes

     site n.     atom                  positions (cryst. coord.)
         1           Sr  tau(   1) = (  0.2508693  0.7491307  0.6943562  )
         2           O   tau(   2) = (  0.4985141  0.5014859  0.6999492  )
         3           Sr  tau(   3) = (  0.7482398  0.7454518  0.6972903  )
         4           Sr  tau(   4) = (  0.7441748  0.2558252  0.6980478  )
         5           Sr  tau(   5) = (  0.2508693  0.7491307  0.5016443  )
         6           Sr  tau(   6) = (  0.2508693  0.7491307  0.3015492  )
         7           Co  tau(   7) = (  0.4998914  0.5001086  0.4015968  )
         8           Co  tau(   8) = (  0.4936915  0.5063085  0.5980003  )
         9           O   tau(   9) = (  0.4988895  0.7610401  0.4015968  )
        10           O   tau(  10) = (  0.2389599  0.5011105  0.4015968  )
        11           O   tau(  11) = (  0.0070918  0.7374880  0.4015968  )
        12           O   tau(  12) = (  0.0088340  0.7405089  0.5980003  )
        13           O   tau(  13) = (  0.5066944  0.7415376  0.5980003  )
        14           O   tau(  14) = (  0.2584624  0.4933056  0.5980003  )
        15           O   tau(  15) = (  0.4985141  0.5014859  0.3071422  )
        16           O   tau(  16) = (  0.4985141  0.5014859  0.4960513  )
        17           Sr  tau(  17) = (  0.7482398  0.7454518  0.3044833  )
        18           Sr  tau(  18) = (  0.7482398  0.7454518  0.4987103  )
        19           Sr  tau(  19) = (  0.7441748  0.2558252  0.3052408  )
        20           Sr  tau(  20) = (  0.7441748  0.2558252  0.4979527  )
        21           O   tau(  21) = (  0.7322655  0.0078049  0.5980003  )
        22           O   tau(  22) = (  0.7558175  0.4996027  0.5980003  )
        23           O   tau(  23) = (  0.5003973  0.2441825  0.5980003  )
        24           O   tau(  24) = (  0.7527966  0.4978604  0.4015968  )
        25           O   tau(  25) = (  0.5021396  0.2472034  0.4015968  )
        26           O   tau(  26) = (  0.7517679  0.0000000  0.4015968  )
        27           O   tau(  27) = (  0.0114961  0.4948124  0.6896512  )
        28           O   tau(  28) = (  0.0048226  0.0077944  0.6999492  )
        29           Sr  tau(  29) = (  0.2545482  0.2517602  0.6972903  )
        30           O   tau(  30) = (  0.5048017  0.0015068  0.7027529  )
        31           Co  tau(  31) = (  0.0056869  0.5006215  0.4015968  )
        32           Co  tau(  32) = (  0.0065315  0.4997770  0.5980003  )
        33           Co  tau(  33) = (  0.0061999  0.0064171  0.4015968  )
        34           Co  tau(  34) = (  0.0000000  0.0126169  0.5980003  )
        35           O   tau(  35) = (  0.0114961  0.4948124  0.5063494  )
        36           O   tau(  36) = (  0.0114961  0.4948124  0.2968442  )
        37           O   tau(  37) = (  0.0051979  0.2673486  0.4015968  )
        38           O   tau(  38) = (  0.0130029  0.2478461  0.5980003  )
        39           O   tau(  39) = (  0.0048226  0.0077944  0.3071422  )
        40           O   tau(  40) = (  0.0048226  0.0077944  0.4960513  )
        41           Sr  tau(  41) = (  0.2545482  0.2517602  0.3044833  )
        42           Sr  tau(  42) = (  0.2545482  0.2517602  0.4987103  )
        43           Co  tau(  43) = (  0.4989925  0.0073160  0.5980003  )
        44           Co  tau(  44) = (  0.4998370  0.0064714  0.4015968  )
        45           O   tau(  45) = (  0.5048017  0.0015068  0.3099459  )
        46           O   tau(  46) = (  0.5048017  0.0015068  0.4932477  )
        47           O   tau(  47) = (  0.2621260  0.0059111  0.5980003  )
        48           O   tau(  48) = (  0.2591051  0.0041689  0.4015968  )
        49           O   tau(  49) = (  0.8529874  0.0000000  0.8534850  )
        50           H   tau(  50) = (  0.8529874  0.0000000  0.9026774  )

     number of k points=    10  Gaussian smearing, width (Ry)=  0.0700
                       cart. coord. in units 2pi/alat
        k(    1) = (   0.0000000   0.0000000   0.0000000), wk =   0.1250000
        k(    2) = (   0.0000000   0.2500000   0.0000000), wk =   0.2500000
        k(    3) = (   0.0000000  -0.5000000   0.0000000), wk =   0.1250000
        k(    4) = (   0.2500000   0.2500000   0.0000000), wk =   0.2500000
        k(    5) = (   0.2500000  -0.5000000   0.0000000), wk =   0.2500000
        k(    6) = (  -0.5000000  -0.5000000   0.0000000), wk =   0.1250000
        k(    7) = (   0.2500000   0.0000000   0.0000000), wk =   0.2500000
        k(    8) = (  -0.5000000   0.0000000   0.0000000), wk =   0.1250000
        k(    9) = (  -0.2500000   0.2500000   0.0000000), wk =   0.2500000
        k(   10) = (  -0.5000000   0.2500000   0.0000000), wk =   0.2500000

                       cryst. coord.
        k(    1) = (   0.0000000   0.0000000   0.0000000), wk =   0.1250000
        k(    2) = (   0.0000000   0.2500000   0.0000000), wk =   0.2500000
        k(    3) = (   0.0000000  -0.5000000   0.0000000), wk =   0.1250000
        k(    4) = (   0.2500000   0.2500000   0.0000000), wk =   0.2500000
        k(    5) = (   0.2500000  -0.5000000   0.0000000), wk =   0.2500000
        k(    6) = (  -0.5000000  -0.5000000   0.0000000), wk =   0.1250000
        k(    7) = (   0.2500000   0.0000000   0.0000000), wk =   0.2500000
        k(    8) = (  -0.5000000   0.0000000   0.0000000), wk =   0.1250000
        k(    9) = (  -0.2500000   0.2500000   0.0000000), wk =   0.2500000
        k(   10) = (  -0.5000000   0.2500000   0.0000000), wk =   0.2500000

     Check: negative core charge=   -0.000004

     Initial potential from superposition of free atoms

     starting charge     422.5961, renormalised to     431.0000

     negative rho (up, down):  7.819E-01 0.000E+00
     Starting wfcs are  377 randomized atomic wfcs
     Checking if some PAW data can be deallocated...

     Self-consistent Calculation

     iteration #  1     ecut=    60.00 Ry     beta= 0.15
     Davidson diagonalization with overlap

     ethr =  1.00E-02,  avg # of iterations =  2.0

     negative rho (up, down):  7.717E-01 0.000E+00

     total energy              =   -4446.66735428 Ry
     estimated scf accuracy    <      44.79733976 Ry

[...]

     c_bands:  1 eigenvalues not converged
     ethr =  8.33E-05,  avg # of iterations = 14.7

[...]

     c_bands:  1 eigenvalues not converged
     ethr =  1.92E-06,  avg # of iterations = 12.8

[...]

     total energy              =   -4441.65573144 Ry
     estimated scf accuracy    <       0.00000002 Ry

     iteration # 49     ecut=    60.00 Ry     beta= 0.15
     Davidson diagonalization with overlap

     ethr =  3.66E-12,  avg # of iterations =  2.2

     negative rho (up, down):  7.925E-01 0.000E+00

     End of self-consistent calculation

          k = 0.0000 0.0000 0.0000 ( 65197 PWs)   bands (ev):

   -92.6869 -92.6346 -92.5407 -92.4947 -92.4349 -92.3931 -92.3763 -92.2569
   -56.0404 -56.0213 -55.8981 -55.8876 -55.8815 -55.8744 -55.8392 -55.8099
   -55.7951 -55.7925 -55.7846 -55.7426 -55.7251 -55.6861 -55.6670 -55.6348
   -55.6304 -55.5818 -55.5807 -55.5784 -55.5700 -55.5321 -55.5065 -55.4237
   -31.2644 -31.2452 -31.1033 -31.0167 -30.9552 -30.9003 -30.8705 -30.7862
   -29.8338 -29.7911 -29.7647 -29.6571 -15.0675 -15.0247 -14.9424 -14.8127
   -14.6199 -14.4975 -14.2048 -14.1825 -14.1559 -14.1076 -14.0637 -14.0546
   -14.0428 -14.0238 -14.0048 -13.9595 -13.9411 -13.9152 -13.7638 -13.5875
   -13.5518 -13.5224 -13.4898 -13.4746 -13.4183 -13.3855 -13.3091 -13.2368
   -13.0996 -13.0914 -13.0845 -13.0613 -13.0430 -12.9936 -12.9878 -12.9816
   -12.9561 -12.9392 -12.9093 -12.8870 -12.8200 -12.8009 -12.7990 -12.7557
   -12.7463 -12.7340 -12.7100 -12.6665 -12.6548 -12.3289 -12.1834 -12.0133
   -11.9379 -11.8475 -11.7733 -11.7620 -11.7397 -11.7220 -11.6584 -11.6410
   -11.6064 -11.5766 -11.4659 -11.3859 -11.3823  -2.9274  -2.6952  -2.4655
    -2.3190  -2.2557  -2.1138  -1.8067  -1.7926  -1.7727  -1.6889  -1.6689
    -1.6009  -1.5847  -1.5439  -1.4981  -1.3177  -1.0993  -1.0891  -1.0616
    -0.9168  -0.9023  -0.8566  -0.8366  -0.7909  -0.7757  -0.7195  -0.6930
    -0.6205  -0.6058  -0.5327  -0.4015  -0.3883  -0.3590  -0.2780  -0.2624
    -0.2534  -0.1835  -0.1139  -0.0700  -0.0142   0.0116   0.0829   0.1591
     0.1952   0.2225   0.2419   0.4868   0.5019   0.6763   0.7392   0.8054
     0.8630   0.9477   0.9578   0.9778   1.0369   1.0640   1.0986   1.1560
     1.2878   1.3465   1.3683   1.3899   1.4009   1.4659   1.5355   1.6417
     1.6570   1.7177   1.7301   1.7734   1.7949   1.7988   1.8593   1.9118
     1.9413   1.9696   2.0041   2.0451   2.1739   2.2547   2.2979   2.3248
     2.4442   2.4784   2.4875   2.5150   2.5273   2.5285   2.6459   2.6730
     2.7010   2.7193   2.7324   2.8127   2.9213   2.9527   2.9650   2.9718
     3.0393   3.0429   3.0683   3.0753   3.0845   3.0985   3.1036   3.1177
     3.1224   3.1368   3.1439   3.1510   3.1705   3.1917   3.1972   3.2087
     3.2347   3.3497   3.4321   4.1239   4.4456   4.7812   4.8741   5.0609
     5.7653   5.9467   5.9991   6.0315   6.3283   6.3753   6.4903   6.5003
     6.7435   7.0166   7.1039   7.3307   7.4342   7.5880   7.6574   7.6769
     7.6977   7.9024   7.9560   8.0994   8.1230   8.1752   8.3652   8.4591
     8.7382   8.8628   8.9096

     occupation numbers
     1.0000   1.0000   1.0000   1.0000   1.0000   1.0000   1.0000   1.0000
     1.0000   1.0000   1.0000   1.0000   1.0000   1.0000   1.0000   1.0000
     1.0000   1.0000   1.0000   1.0000   1.0000   1.0000   1.0000   1.0000
     1.0000   1.0000   1.0000   1.0000   1.0000   1.0000   1.0000   1.0000
     1.0000   1.0000   1.0000   1.0000   1.0000   1.0000   1.0000   1.0000
     1.0000   1.0000   1.0000   1.0000   1.0000   1.0000   1.0000   1.0000
     1.0000   1.0000   1.0000   1.0000   1.0000   1.0000   1.0000   1.0000
     1.0000   1.0000   1.0000   1.0000   1.0000   1.0000   1.0000   1.0000
     1.0000   1.0000   1.0000   1.0000   1.0000   1.0000   1.0000   1.0000
     1.0000   1.0000   1.0000   1.0000   1.0000   1.0000   1.0000   1.0000
     1.0000   1.0000   1.0000   1.0000   1.0000   1.0000   1.0000   1.0000
     1.0000   1.0000   1.0000   1.0000   1.0000   1.0000   1.0000   1.0000
     1.0000   1.0000   1.0000   1.0000   1.0000   1.0000   1.0000   1.0000
     1.0000   1.0000   1.0000   1.0000   1.0000   1.0000   1.0000   1.0000
     1.0000   1.0000   1.0000   1.0000   1.0000   1.0000   1.0000   1.0000
     1.0000   1.0000   1.0000   1.0000   1.0000   1.0000   1.0000   1.0000
     1.0000   1.0000   1.0000   1.0000   1.0000   1.0000   1.0000   1.0000
     1.0000   1.0000   1.0000   1.0000   1.0000   1.0000   1.0000   1.0000
     1.0000   1.0000   1.0000   1.0000   1.0000   1.0000   1.0000   1.0000
     1.0000   1.0000   1.0000   1.0000   1.0000   1.0000   0.9999   0.9999
     0.9999   0.9998   0.9998   0.9998   0.9997   0.9996   0.9996   0.9994
     0.9989   0.9985   0.9983   0.9981   0.9980   0.9973   0.9963   0.9942
     0.9938   0.9920   0.9916   0.9900   0.9891   0.9890   0.9861   0.9831
     0.9812   0.9791   0.9764   0.9728   0.9584   0.9466   0.9393   0.9343
     0.9085   0.8998   0.8974   0.8900   0.8865   0.8861   0.8489   0.8393
     0.8290   0.8220   0.8168   0.7835   0.7333   0.7178   0.7116   0.7081
     0.6728   0.6709   0.6571   0.6533   0.6482   0.6405   0.6377   0.6298
     0.6272   0.6190   0.6150   0.6109   0.5998   0.5876   0.5844   0.5778
     0.5626   0.4947   0.4461   0.1225   0.0505   0.0162   0.0114   0.0053
     0.0002   0.0001   0.0000   0.0000   0.0000   0.0000   0.0000   0.0000
     0.0000   0.0000   0.0000   0.0000   0.0000   0.0000   0.0000   0.0000
     0.0000   0.0000   0.0000   0.0000   0.0000   0.0000   0.0000   0.0000
     0.0000   0.0000   0.0000

[...]

          k =-0.5000-0.5000 0.0000 ( 65132 PWs)   bands (ev):

[...]

          k = 0.2500 0.0000 0.0000 ( 65257 PWs)   bands (ev):

[...]

          k =-0.5000 0.2500 0.0000 ( 65138 PWs)   bands (ev):

   -92.6869 -92.6346 -92.5407 -92.4947 -92.4349 -92.3931 -92.3763 -92.2569
   -56.0404 -56.0213 -55.8981 -55.8876 -55.8815 -55.8744 -55.8392 -55.8099
   -55.7951 -55.7925 -55.7846 -55.7426 -55.7251 -55.6861 -55.6670 -55.6348
   -55.6304 -55.5818 -55.5807 -55.5784 -55.5700 -55.5321 -55.5065 -55.4237
   -31.2603 -31.2490 -31.1028 -31.0176 -30.9538 -30.9011 -30.8701 -30.7873
   -29.8312 -29.7929 -29.7645 -29.6583 -14.9687 -14.9243 -14.8454 -14.7420
   -14.7021 -14.5769 -14.4906 -14.3542 -14.0509 -14.0201 -14.0086 -13.9663
   -13.9482 -13.9407 -13.9185 -13.8825 -13.8695 -13.8493 -13.8096 -13.7923
   -13.6840 -13.6235 -13.5748 -13.5719 -13.5580 -13.4564 -13.4523 -13.3144
   -13.2533 -13.1871 -13.1500 -13.0528 -13.0135 -13.0022 -12.9718 -12.9373
   -12.9254 -12.9050 -12.8917 -12.8141 -12.7732 -12.7414 -12.7209 -12.7090
   -12.6900 -12.6085 -12.6010 -12.5257 -12.4029 -12.3089 -12.2299 -12.1684
   -12.1422 -11.7570 -11.7445 -11.7303 -11.7180 -11.6973 -11.6671 -11.5856
   -11.5777 -11.5536 -11.5192 -11.4912 -11.4821  -2.4253  -2.3832  -2.2352
    -2.1926  -2.0322  -1.9565  -1.8145  -1.6775  -1.6220  -1.5942  -1.5559
    -1.5168  -1.4364  -1.3207  -1.2640  -1.2403  -1.2146  -1.1387  -1.1099
    -1.0902  -1.0713  -1.0535  -0.9932  -0.9631  -0.9249  -0.8895  -0.8610
    -0.8031  -0.7754  -0.7334  -0.6994  -0.5949  -0.5690  -0.4809  -0.4155
    -0.3871  -0.3306  -0.2427  -0.2110  -0.1101  -0.0739  -0.0123   0.0380
     0.0588   0.1351   0.1707   0.2094   0.2473   0.2858   0.6008   0.6520
     0.7507   0.7851   1.0309   1.0920   1.1650   1.1879   1.3675   1.4015
     1.4394   1.4513   1.4708   1.4877   1.5552   1.6015   1.6397   1.6689
     1.7909   1.8268   1.8597   1.8762   1.9159   1.9329   1.9509   1.9712
     1.9844   2.0073   2.0575   2.0670   2.1071   2.1296   2.1642   2.2177
     2.3362   2.4346   2.4583   2.4599   2.5083   2.5321   2.5677   2.6371
     2.6676   2.6738   2.7118   2.7432   2.7675   2.8517   2.8941   2.9056
     2.9115   2.9328   2.9552   2.9680   2.9818   2.9958   3.0167   3.0305
     3.0395   3.0478   3.0597   3.0722   3.6024   3.6407   3.7910   3.8102
     4.1119   4.1608   4.2108   4.4257   4.7991   4.8932   5.0576   5.0951
     5.4194   5.4453   5.5995   5.6340   5.7607   5.8042   6.4014   6.4327
     6.5077   6.5620   7.2985   7.3296   7.5713   7.7288   7.8024   7.8184
     7.9031   8.0383   8.2694   8.4260   8.4997   8.5332   8.5479   8.5905
     8.6743   8.7546   8.7780

     occupation numbers
     1.0000   1.0000   1.0000   1.0000   1.0000   1.0000   1.0000   1.0000
     1.0000   1.0000   1.0000   1.0000   1.0000   1.0000   1.0000   1.0000
     1.0000   1.0000   1.0000   1.0000   1.0000   1.0000   1.0000   1.0000
     1.0000   1.0000   1.0000   1.0000   1.0000   1.0000   1.0000   1.0000
     1.0000   1.0000   1.0000   1.0000   1.0000   1.0000   1.0000   1.0000
     1.0000   1.0000   1.0000   1.0000   1.0000   1.0000   1.0000   1.0000
     1.0000   1.0000   1.0000   1.0000   1.0000   1.0000   1.0000   1.0000
     1.0000   1.0000   1.0000   1.0000   1.0000   1.0000   1.0000   1.0000
     1.0000   1.0000   1.0000   1.0000   1.0000   1.0000   1.0000   1.0000
     1.0000   1.0000   1.0000   1.0000   1.0000   1.0000   1.0000   1.0000
     1.0000   1.0000   1.0000   1.0000   1.0000   1.0000   1.0000   1.0000
     1.0000   1.0000   1.0000   1.0000   1.0000   1.0000   1.0000   1.0000
     1.0000   1.0000   1.0000   1.0000   1.0000   1.0000   1.0000   1.0000
     1.0000   1.0000   1.0000   1.0000   1.0000   1.0000   1.0000   1.0000
     1.0000   1.0000   1.0000   1.0000   1.0000   1.0000   1.0000   1.0000
     1.0000   1.0000   1.0000   1.0000   1.0000   1.0000   1.0000   1.0000
     1.0000   1.0000   1.0000   1.0000   1.0000   1.0000   1.0000   1.0000
     1.0000   1.0000   1.0000   1.0000   1.0000   1.0000   1.0000   1.0000
     1.0000   1.0000   1.0000   1.0000   1.0000   1.0000   1.0000   1.0000
     1.0000   1.0000   1.0000   1.0000   1.0000   1.0000   1.0000   1.0000
     0.9999   0.9999   0.9997   0.9996   0.9994   0.9993   0.9983   0.9980
     0.9976   0.9975   0.9973   0.9970   0.9960   0.9951   0.9942   0.9935
     0.9893   0.9877   0.9861   0.9852   0.9828   0.9817   0.9805   0.9790
     0.9780   0.9762   0.9716   0.9707   0.9665   0.9640   0.9597   0.9523
     0.9321   0.9108   0.9050   0.9046   0.8918   0.8851   0.8745   0.8520
     0.8412   0.8390   0.8249   0.8125   0.8027   0.7661   0.7464   0.7409
     0.7381   0.7277   0.7165   0.7101   0.7030   0.6958   0.6848   0.6775
     0.6727   0.6682   0.6618   0.6550   0.3489   0.3280   0.2519   0.2429
     0.1261   0.1117   0.0982   0.0536   0.0152   0.0106   0.0054   0.0046
     0.0010   0.0009   0.0004   0.0003   0.0002   0.0001   0.0000   0.0000
     0.0000   0.0000   0.0000   0.0000   0.0000   0.0000   0.0000   0.0000
     0.0000   0.0000   0.0000   0.0000   0.0000   0.0000   0.0000   0.0000
     0.0000   0.0000   0.0000

     the Fermi energy is     3.3408 ev

!    total energy              =   -4441.65573143 Ry
     estimated scf accuracy    <          6.0E-09 Ry
     smearing contrib. (-TS)   =      -1.15488840 Ry
     internal energy E=F+TS    =   -4440.50084303 Ry

     The total energy is F=E-TS. E is the sum of the following terms:
     one-electron contribution =  -20803.99452494 Ry
     hartree contribution      =   10534.17880597 Ry
     xc contribution           =    -694.18154401 Ry
     ewald contribution        =    6799.66694064 Ry
     one-center paw contrib.   =    -276.17052068 Ry
      -> PAW hartree energy AE =      25.17566671 Ry
      -> PAW hartree energy PS =     -25.05943286 Ry
      -> PAW xc energy AE      =     -16.51930624 Ry
      -> PAW xc energy PS      =       6.87885668 Ry
      -> total E_H with PAW    =   10534.29503981 Ry
      -> total E_XC with PAW   =    -703.82199357 Ry

     convergence has been achieved in  49 iterations

     Writing all to output data dir /bsuhome/zayahcortright/scratch/pwscf.save/

     General routines

     Parallel routines

     PAW routines

   This run was terminated on:   2: 5: 9  22Jun2024

   JOB DONE.